       N       E                     dE             d eps       ncg     rms          rms(c)
RMM:   1    -0.205978706512E+04   -0.20598E+04   -0.34849E+05  4320   0.146E+03
RMM:   2     0.895198423334E+03    0.29550E+04   -0.62464E+04  4320   0.388E+02
RMM:   3     0.413203344038E+03   -0.48200E+03   -0.14775E+04  4320   0.223E+02
RMM:   4    -0.203253216615E+03   -0.61646E+03   -0.56351E+03  4320   0.140E+02
RMM:   5    -0.412564306020E+03   -0.20931E+03   -0.17864E+03  4320   0.781E+01
RMM:   6    -0.468395168361E+03   -0.55831E+02   -0.49489E+02  4320   0.445E+01
RMM:   7    -0.481669848941E+03   -0.13275E+02   -0.13062E+02  4320   0.226E+01
RMM:   8    -0.485888454192E+03   -0.42186E+01   -0.40504E+01  4320   0.132E+01
RMM:   9    -0.487959657497E+03   -0.20712E+01   -0.20971E+01 13331   0.719E+00
RMM:  10    -0.487875925458E+03    0.83732E-01   -0.21147E+00 14466   0.259E+00
RMM:  11    -0.487875040674E+03    0.88478E-03   -0.23848E-01 13840   0.567E-01
RMM:  12    -0.487874319381E+03    0.72129E-03   -0.19967E-02 14104   0.142E-01    0.105E+02
RMM:  13    -0.385171447430E+03    0.10270E+03   -0.93938E+02 10898   0.551E+01    0.122E+02
RMM:  14    -0.377561853311E+03    0.76096E+01   -0.57848E+01 11669   0.140E+01    0.702E+01
RMM:  15    -0.398841109093E+03   -0.21279E+02   -0.69836E+01 11394   0.137E+01    0.103E+02
RMM:  16    -0.377617235667E+03    0.21224E+02   -0.69879E+01 10803   0.118E+01    0.525E+01
RMM:  17    -0.380435439407E+03   -0.28182E+01   -0.27792E+01 11053   0.908E+00    0.655E+01
RMM:  18    -0.377494775318E+03    0.29407E+01   -0.65023E+01 11010   0.111E+01    0.428E+01
RMM:  19    -0.365745907441E+03    0.11749E+02   -0.10640E+01 11635   0.455E+00    0.194E+01
RMM:  20    -0.366668215367E+03   -0.92231E+00   -0.17261E+00 10946   0.221E+00    0.149E+01
RMM:  21    -0.368551713188E+03   -0.18835E+01   -0.10183E+00 10485   0.147E+00    0.133E+01
RMM:  22    -0.369651127523E+03   -0.10994E+01   -0.11427E+00 10806   0.154E+00    0.111E+01
RMM:  23    -0.370681665070E+03   -0.10305E+01   -0.52099E-01 10924   0.107E+00    0.846E+00
RMM:  24    -0.371604796090E+03   -0.92313E+00   -0.67997E-01 10085   0.120E+00    0.499E+00
RMM:  25    -0.371883467081E+03   -0.27867E+00   -0.18471E-01 10984   0.719E-01    0.319E+00
RMM:  26    -0.372021185395E+03   -0.13772E+00   -0.16354E-01 10691   0.587E-01    0.237E+00
RMM:  27    -0.372097629467E+03   -0.76444E-01   -0.46187E-02 11680   0.344E-01    0.175E+00
RMM:  28    -0.372152469745E+03   -0.54840E-01   -0.30919E-02 10276   0.263E-01    0.133E+00
RMM:  29    -0.372212959427E+03   -0.60490E-01   -0.18972E-02 10691   0.193E-01    0.139E+00
RMM:  30    -0.372224810718E+03   -0.11851E-01   -0.12361E-02 10820   0.174E-01    0.118E+00
RMM:  31    -0.372290848998E+03   -0.66038E-01   -0.82689E-03 10713   0.127E-01    0.103E+00
RMM:  32    -0.372352845483E+03   -0.61996E-01   -0.10062E-02  9973   0.135E-01    0.813E-01
RMM:  33    -0.372419597153E+03   -0.66752E-01   -0.76529E-03  9798   0.103E-01    0.643E-01
RMM:  34    -0.372483933397E+03   -0.64336E-01   -0.62514E-03  9822   0.994E-02    0.521E-01
RMM:  35    -0.372550814349E+03   -0.66881E-01   -0.67253E-03  9741   0.962E-02    0.424E-01
RMM:  36    -0.372599541655E+03   -0.48727E-01   -0.51206E-03  9907   0.850E-02    0.363E-01
RMM:  37    -0.372632523415E+03   -0.32982E-01   -0.39602E-03  9656   0.777E-02    0.328E-01
RMM:  38    -0.372648400060E+03   -0.15877E-01   -0.22240E-03  9968   0.587E-02    0.319E-01
RMM:  39    -0.372646784180E+03    0.16159E-02   -0.28863E-04  9826   0.440E-02    0.319E-01
RMM:  40    -0.372652582374E+03   -0.57982E-02   -0.78328E-04  8987   0.445E-02    0.323E-01
RMM:  41    -0.372630271586E+03    0.22311E-01   -0.10754E-02  8708   0.158E-01    0.337E-01
RMM:  42    -0.372639977636E+03   -0.97060E-02   -0.11510E-03 10071   0.878E-02    0.325E-01
RMM:  43    -0.372640569230E+03   -0.59159E-03   -0.33648E-05  7942   0.105E-02    0.326E-01
RMM:  44    -0.372632789529E+03    0.77797E-02   -0.31058E-03  8498   0.871E-02    0.329E-01
RMM:  45    -0.372610315412E+03    0.22474E-01   -0.12237E-02  8783   0.170E-01    0.378E-01
RMM:  46    -0.372621884785E+03   -0.11569E-01   -0.18535E-03  8619   0.107E-01    0.361E-01
RMM:  47    -0.372621885403E+03   -0.61817E-06   -0.62465E-05  9589   0.181E-02
   1 F= -.37262189E+03 E0= -.37262693E+03  d E =0.151223E-01  mag=    18.0866
