       N       E                     dE             d eps       ncg     rms          rms(c)
RMM:   1    -0.161050609937E+04   -0.16105E+04   -0.35937E+05  3888   0.165E+03
RMM:   2     0.809481306812E+03    0.24200E+04   -0.68573E+04  3888   0.457E+02
RMM:   3     0.570120553276E+03   -0.23936E+03   -0.16379E+04  3888   0.258E+02
RMM:   4    -0.618556889790E+02   -0.63198E+03   -0.64093E+03  3888   0.164E+02
RMM:   5    -0.339395399028E+03   -0.27754E+03   -0.25086E+03  3888   0.975E+01
RMM:   6    -0.438733895408E+03   -0.99338E+02   -0.90946E+02  3888   0.602E+01
RMM:   7    -0.468830424446E+03   -0.30097E+02   -0.30224E+02  3888   0.337E+01
RMM:   8    -0.480280287472E+03   -0.11450E+02   -0.11105E+02  3888   0.209E+01
RMM:   9    -0.487734756284E+03   -0.74545E+01   -0.75272E+01 12174   0.121E+01
RMM:  10    -0.487390069637E+03    0.34469E+00   -0.75679E+00 13078   0.392E+00
RMM:  11    -0.487579571832E+03   -0.18950E+00   -0.23773E+00 12564   0.110E+00
RMM:  12    -0.487713565204E+03   -0.13399E+00   -0.14093E+00 12498   0.376E-01    0.105E+02
RMM:  13    -0.383706994756E+03    0.10401E+03   -0.11382E+03  9968   0.652E+01    0.121E+02
RMM:  14    -0.377666399324E+03    0.60406E+01   -0.68928E+01 10689   0.162E+01    0.708E+01
RMM:  15    -0.395206975745E+03   -0.17541E+02   -0.98808E+01 10981   0.170E+01    0.102E+02
RMM:  16    -0.378748910722E+03    0.16458E+02   -0.63136E+01 10327   0.131E+01    0.485E+01
RMM:  17    -0.373699966442E+03    0.50489E+01   -0.26056E+01 10571   0.918E+00    0.346E+01
RMM:  18    -0.372628231918E+03    0.10717E+01   -0.84745E+00 10502   0.540E+00    0.176E+01
RMM:  19    -0.372240189832E+03    0.38804E+00   -0.31440E+00 10654   0.301E+00    0.130E+01
RMM:  20    -0.372677728554E+03   -0.43754E+00   -0.19422E+00 10816   0.218E+00    0.108E+01
RMM:  21    -0.373119692842E+03   -0.44196E+00   -0.62903E-01 11298   0.129E+00    0.101E+01
RMM:  22    -0.373481172642E+03   -0.36148E+00   -0.55060E-01 10514   0.114E+00    0.894E+00
RMM:  23    -0.374101523293E+03   -0.62035E+00   -0.80801E-01 10268   0.143E+00    0.773E+00
RMM:  24    -0.374327678911E+03   -0.22616E+00   -0.41689E-01 10783   0.103E+00    0.658E+00
RMM:  25    -0.374251098401E+03    0.76581E-01   -0.39515E-01 10218   0.108E+00    0.376E+00
RMM:  26    -0.374422052384E+03   -0.17095E+00   -0.46196E-01 10601   0.112E+00    0.276E+00
RMM:  27    -0.374448518337E+03   -0.26466E-01   -0.15450E-01 10723   0.718E-01    0.204E+00
RMM:  28    -0.374482174689E+03   -0.33656E-01   -0.74638E-02 11212   0.443E-01    0.155E+00
RMM:  29    -0.374504348839E+03   -0.22174E-01   -0.35101E-02 10644   0.295E-01    0.122E+00
RMM:  30    -0.374518911960E+03   -0.14563E-01   -0.36473E-02 10053   0.264E-01    0.896E-01
RMM:  31    -0.374533349023E+03   -0.14437E-01   -0.27821E-02 10539   0.212E-01    0.642E-01
RMM:  32    -0.374542357690E+03   -0.90087E-02   -0.28158E-02 10527   0.202E-01    0.448E-01
RMM:  33    -0.374545524547E+03   -0.31669E-02   -0.12835E-02 11046   0.144E-01    0.331E-01
RMM:  34    -0.374547477989E+03   -0.19534E-02   -0.40683E-03 11380   0.811E-02    0.263E-01
RMM:  35    -0.374549820596E+03   -0.23426E-02   -0.34095E-03 10200   0.820E-02    0.206E-01
RMM:  36    -0.374552813811E+03   -0.29932E-02   -0.51492E-03 10008   0.941E-02    0.145E-01
RMM:  37    -0.374554903807E+03   -0.20900E-02   -0.27249E-03 10316   0.635E-02    0.130E-01
RMM:  38    -0.374556823964E+03   -0.19202E-02   -0.24815E-03  9461   0.583E-02    0.117E-01
RMM:  39    -0.374558249299E+03   -0.14253E-02   -0.23509E-03  9331   0.550E-02    0.107E-01
RMM:  40    -0.374558865421E+03   -0.61612E-03   -0.28943E-03  9458   0.595E-02    0.958E-02
RMM:  41    -0.374559587596E+03   -0.72217E-03   -0.14825E-03  9533   0.414E-02    0.829E-02
RMM:  42    -0.374560145277E+03   -0.55768E-03   -0.17550E-03  9082   0.463E-02    0.629E-02
RMM:  43    -0.374560499826E+03   -0.35455E-03   -0.28262E-03  8955   0.602E-02    0.524E-02
RMM:  44    -0.374561050430E+03   -0.55060E-03   -0.12035E-03  9351   0.388E-02    0.396E-02
RMM:  45    -0.374561324318E+03   -0.27389E-03   -0.77088E-04  8846   0.302E-02    0.318E-02
RMM:  46    -0.374561508748E+03   -0.18443E-03   -0.43802E-04  8579   0.226E-02    0.257E-02
RMM:  47    -0.374561712835E+03   -0.20409E-03   -0.31128E-04  7820   0.196E-02    0.209E-02
RMM:  48    -0.374561887917E+03   -0.17508E-03   -0.15166E-04  7850   0.135E-02    0.162E-02
RMM:  49    -0.374562017908E+03   -0.12999E-03   -0.13837E-04  7739   0.116E-02    0.163E-02
RMM:  50    -0.374562078358E+03   -0.60450E-04   -0.96945E-05  7304   0.961E-03    0.136E-02
RMM:  51    -0.374562080154E+03   -0.17958E-05   -0.77124E-05  7283   0.932E-03
   1 F= -.37456208E+03 E0= -.37457039E+03  d E =0.249442E-01  mag=    -7.9949
