       N       E                     dE             d eps       ncg     rms          rms(c)
RMM:   1    -0.161087559419E+04   -0.16109E+04   -0.35961E+05  3888   0.165E+03
RMM:   2     0.807800909732E+03    0.24187E+04   -0.68530E+04  3888   0.457E+02
RMM:   3     0.570393980381E+03   -0.23741E+03   -0.16418E+04  3888   0.258E+02
RMM:   4    -0.600078572324E+02   -0.63040E+03   -0.64155E+03  3888   0.164E+02
RMM:   5    -0.337430326807E+03   -0.27742E+03   -0.25075E+03  3888   0.974E+01
RMM:   6    -0.437595031593E+03   -0.10016E+03   -0.91664E+02  3888   0.602E+01
RMM:   7    -0.468194117182E+03   -0.30599E+02   -0.30696E+02  3888   0.337E+01
RMM:   8    -0.479968112318E+03   -0.11774E+02   -0.11408E+02  3888   0.210E+01
RMM:   9    -0.487773498881E+03   -0.78054E+01   -0.78847E+01 12164   0.123E+01
RMM:  10    -0.487391812724E+03    0.38169E+00   -0.79072E+00 13067   0.398E+00
RMM:  11    -0.487574735754E+03   -0.18292E+00   -0.24079E+00 12554   0.112E+00
RMM:  12    -0.487708316405E+03   -0.13358E+00   -0.14278E+00 12520   0.383E-01    0.105E+02
RMM:  13    -0.382699253565E+03    0.10501E+03   -0.11380E+03  9976   0.650E+01    0.122E+02
RMM:  14    -0.376386632952E+03    0.63126E+01   -0.64055E+01 10616   0.157E+01    0.719E+01
RMM:  15    -0.387056771469E+03   -0.10670E+02   -0.10406E+02 10612   0.177E+01    0.943E+01
RMM:  16    -0.374765646884E+03    0.12291E+02   -0.53547E+01 10360   0.109E+01    0.462E+01
RMM:  17    -0.373073240482E+03    0.16924E+01   -0.22818E+01 10422   0.831E+00    0.404E+01
RMM:  18    -0.373265866281E+03   -0.19263E+00   -0.16785E+01 10400   0.690E+00    0.209E+01
RMM:  19    -0.370925362860E+03    0.23405E+01   -0.46070E+00 10881   0.362E+00    0.123E+01
RMM:  20    -0.372015749180E+03   -0.10904E+01   -0.15198E+00 10636   0.199E+00    0.148E+01
RMM:  21    -0.372369338021E+03   -0.35359E+00   -0.70173E-01 10947   0.139E+00    0.118E+01
RMM:  22    -0.372725511570E+03   -0.35617E+00   -0.59012E-01 10422   0.123E+00    0.110E+01
RMM:  23    -0.373112185743E+03   -0.38667E+00   -0.35422E-01 10733   0.916E-01    0.102E+01
RMM:  24    -0.373253176644E+03   -0.14099E+00   -0.38573E-01 10219   0.105E+00    0.843E+00
RMM:  25    -0.373565262778E+03   -0.31209E+00   -0.80331E-01 10377   0.131E+00    0.585E+00
RMM:  26    -0.373732814792E+03   -0.16755E+00   -0.57267E-01 10157   0.116E+00    0.366E+00
RMM:  27    -0.373863735546E+03   -0.13092E+00   -0.30115E-01 10896   0.792E-01    0.251E+00
RMM:  28    -0.373904739477E+03   -0.41004E-01   -0.89752E-02 10778   0.483E-01    0.185E+00
RMM:  29    -0.373913235637E+03   -0.84962E-02   -0.57984E-02 10326   0.385E-01    0.140E+00
RMM:  30    -0.373920355636E+03   -0.71200E-02   -0.29933E-02 10078   0.264E-01    0.102E+00
RMM:  31    -0.373921885589E+03   -0.15300E-02   -0.14705E-02 10415   0.172E-01    0.643E-01
RMM:  32    -0.373923538729E+03   -0.16531E-02   -0.93157E-03 10240   0.129E-01    0.397E-01
RMM:  33    -0.373924044962E+03   -0.50623E-03   -0.35919E-03 10321   0.907E-02    0.284E-01
RMM:  34    -0.373924773682E+03   -0.72872E-03   -0.22479E-03 10172   0.674E-02    0.231E-01
RMM:  35    -0.373926322947E+03   -0.15493E-02   -0.24721E-03  9919   0.675E-02    0.198E-01
RMM:  36    -0.373928013964E+03   -0.16910E-02   -0.23382E-03 10002   0.633E-02    0.165E-01
RMM:  37    -0.373929464087E+03   -0.14501E-02   -0.14894E-03 10155   0.514E-02    0.143E-01
RMM:  38    -0.373930628209E+03   -0.11641E-02   -0.11340E-03  9535   0.422E-02    0.116E-01
RMM:  39    -0.373932207513E+03   -0.15793E-02   -0.17336E-03  9190   0.522E-02    0.985E-02
RMM:  40    -0.373933619614E+03   -0.14121E-02   -0.18452E-03  9292   0.500E-02    0.795E-02
RMM:  41    -0.373934151793E+03   -0.53218E-03   -0.23107E-03  9190   0.531E-02    0.659E-02
RMM:  42    -0.373934207421E+03   -0.55628E-04   -0.22411E-03  9325   0.544E-02    0.569E-02
RMM:  43    -0.373934507656E+03   -0.30024E-03   -0.91986E-04  9787   0.359E-02    0.478E-02
RMM:  44    -0.373934830866E+03   -0.32321E-03   -0.51371E-04  8680   0.259E-02    0.312E-02
RMM:  45    -0.373935171639E+03   -0.34077E-03   -0.50439E-04  8282   0.255E-02    0.256E-02
RMM:  46    -0.373935441500E+03   -0.26986E-03   -0.34914E-04  8099   0.209E-02    0.213E-02
RMM:  47    -0.373935657933E+03   -0.21643E-03   -0.26408E-04  8232   0.176E-02    0.207E-02
RMM:  48    -0.373935790868E+03   -0.13293E-03   -0.10044E-04  7632   0.115E-02    0.150E-02
RMM:  49    -0.373935879626E+03   -0.88758E-04   -0.64635E-05  6570   0.805E-03    0.119E-02
RMM:  50    -0.373935931177E+03   -0.51551E-04   -0.38498E-05  6209   0.622E-03    0.998E-03
RMM:  51    -0.373935967999E+03   -0.36822E-04   -0.39523E-05  6435   0.620E-03    0.831E-03
RMM:  52    -0.373935981809E+03   -0.13810E-04   -0.24393E-05  6042   0.523E-03    0.703E-03
RMM:  53    -0.373935981619E+03    0.18983E-06   -0.10657E-05  5545   0.406E-03
   1 F= -.37393598E+03 E0= -.37394488E+03  d E =0.267096E-01  mag=   -18.0579
