       N       E                     dE             d eps       ncg     rms          rms(c)
RMM:   1    -0.206449655027E+04   -0.20645E+04   -0.34854E+05  4320   0.146E+03
RMM:   2     0.893770876586E+03    0.29583E+04   -0.62582E+04  4320   0.388E+02
RMM:   3     0.414108101314E+03   -0.47966E+03   -0.14759E+04  4320   0.223E+02
RMM:   4    -0.203760876649E+03   -0.61787E+03   -0.56411E+03  4320   0.140E+02
RMM:   5    -0.412596415698E+03   -0.20884E+03   -0.17859E+03  4320   0.781E+01
RMM:   6    -0.468255484744E+03   -0.55659E+02   -0.49389E+02  4320   0.445E+01
RMM:   7    -0.481578443363E+03   -0.13323E+02   -0.13104E+02  4320   0.226E+01
RMM:   8    -0.485811068004E+03   -0.42326E+01   -0.40558E+01  4320   0.132E+01
RMM:   9    -0.487897359512E+03   -0.20863E+01   -0.21076E+01 13385   0.717E+00
RMM:  10    -0.487821850200E+03    0.75509E-01   -0.21324E+00 14503   0.251E+00
RMM:  11    -0.487823084828E+03   -0.12346E-02   -0.25567E-01 13853   0.556E-01
RMM:  12    -0.487822428328E+03    0.65650E-03   -0.24958E-02 14057   0.140E-01    0.106E+02
RMM:  13    -0.387379032765E+03    0.10044E+03   -0.95958E+02 10896   0.558E+01    0.126E+02
RMM:  14    -0.378392367965E+03    0.89867E+01   -0.59202E+01 11877   0.143E+01    0.723E+01
RMM:  15    -0.392673885175E+03   -0.14282E+02   -0.79102E+01 11314   0.147E+01    0.972E+01
RMM:  16    -0.374317356826E+03    0.18357E+02   -0.51807E+01 10837   0.995E+00    0.466E+01
RMM:  17    -0.370942135290E+03    0.33752E+01   -0.19473E+01 11373   0.791E+00    0.337E+01
RMM:  18    -0.370686019924E+03    0.25612E+00   -0.54951E+00 11506   0.402E+00    0.164E+01
RMM:  19    -0.371500454363E+03   -0.81443E+00   -0.21524E+00 10722   0.243E+00    0.115E+01
RMM:  20    -0.371766902719E+03   -0.26645E+00   -0.14061E+00 10530   0.185E+00    0.824E+00
RMM:  21    -0.372125057856E+03   -0.35816E+00   -0.27354E-01 11633   0.910E-01    0.631E+00
RMM:  22    -0.372648020404E+03   -0.52296E+00   -0.45902E-01 10524   0.996E-01    0.755E+00
RMM:  23    -0.372698522776E+03   -0.50502E-01   -0.10653E-01 11019   0.527E-01    0.701E+00
RMM:  24    -0.372943242579E+03   -0.24472E+00   -0.18797E-01 10782   0.586E-01    0.574E+00
RMM:  25    -0.373446375276E+03   -0.50313E+00   -0.47461E-01 10050   0.961E-01    0.405E+00
RMM:  26    -0.373796111565E+03   -0.34974E+00   -0.34931E-01 10193   0.884E-01    0.289E+00
RMM:  27    -0.373927122601E+03   -0.13101E+00   -0.21137E-01 11235   0.703E-01    0.229E+00
RMM:  28    -0.373943280664E+03   -0.16158E-01   -0.36561E-02 11716   0.295E-01    0.209E+00
RMM:  29    -0.373940867860E+03    0.24128E-02   -0.43214E-02 10503   0.289E-01    0.191E+00
RMM:  30    -0.373935796524E+03    0.50713E-02   -0.12005E-02 11616   0.149E-01    0.160E+00
RMM:  31    -0.373933459219E+03    0.23373E-02   -0.21328E-02 10456   0.189E-01    0.809E-01
RMM:  32    -0.373938588877E+03   -0.51297E-02   -0.12032E-02 10470   0.148E-01    0.506E-01
RMM:  33    -0.373945747489E+03   -0.71586E-02   -0.84678E-03 10055   0.120E-01    0.390E-01
RMM:  34    -0.373953309037E+03   -0.75615E-02   -0.55536E-03 10184   0.903E-02    0.365E-01
RMM:  35    -0.373961605855E+03   -0.82968E-02   -0.62044E-03 10103   0.901E-02    0.300E-01
RMM:  36    -0.373967271932E+03   -0.56661E-02   -0.54700E-03 10021   0.905E-02    0.238E-01
RMM:  37    -0.373970267137E+03   -0.29952E-02   -0.37921E-03 10386   0.819E-02    0.173E-01
RMM:  38    -0.373971842347E+03   -0.15752E-02   -0.10436E-03 10719   0.465E-02    0.136E-01
RMM:  39    -0.373973301074E+03   -0.14587E-02   -0.86268E-04  9728   0.399E-02    0.118E-01
RMM:  40    -0.373974650108E+03   -0.13490E-02   -0.74411E-04  9492   0.358E-02    0.104E-01
RMM:  41    -0.373976041580E+03   -0.13915E-02   -0.17632E-03  9185   0.527E-02    0.913E-02
RMM:  42    -0.373976147004E+03   -0.10542E-03   -0.16990E-03  9179   0.495E-02    0.698E-02
RMM:  43    -0.373976419984E+03   -0.27298E-03   -0.11331E-03  9916   0.429E-02    0.548E-02
RMM:  44    -0.373976942712E+03   -0.52273E-03   -0.68528E-04  9710   0.332E-02    0.437E-02
RMM:  45    -0.373977507967E+03   -0.56526E-03   -0.60351E-04  8862   0.305E-02    0.374E-02
RMM:  46    -0.373977996017E+03   -0.48805E-03   -0.29129E-04  8758   0.226E-02    0.304E-02
RMM:  47    -0.373978328247E+03   -0.33223E-03   -0.17631E-04  8270   0.171E-02    0.229E-02
RMM:  48    -0.373978541999E+03   -0.21375E-03   -0.11264E-04  7934   0.134E-02    0.177E-02
RMM:  49    -0.373978683123E+03   -0.14112E-03   -0.46639E-05  6978   0.955E-03    0.155E-02
RMM:  50    -0.373978807378E+03   -0.12425E-03   -0.37474E-05  6550   0.788E-03    0.140E-02
RMM:  51    -0.373978891658E+03   -0.84280E-04   -0.34411E-05  6708   0.711E-03    0.130E-02
RMM:  52    -0.373978909157E+03   -0.17499E-04   -0.36583E-05  7093   0.747E-03    0.118E-02
RMM:  53    -0.373978906406E+03    0.27504E-05   -0.37847E-05  7524   0.765E-03
   1 F= -.37397891E+03 E0= -.37398766E+03  d E =0.262739E-01  mag=    16.0649
