       N       E                     dE             d eps       ncg     rms          rms(c)
RMM:   1    -0.206533055422E+04   -0.20653E+04   -0.34879E+05  4320   0.146E+03
RMM:   2     0.891477674649E+03    0.29568E+04   -0.62661E+04  4320   0.389E+02
RMM:   3     0.414484400680E+03   -0.47699E+03   -0.14832E+04  4320   0.223E+02
RMM:   4    -0.200743645723E+03   -0.61523E+03   -0.56628E+03  4320   0.140E+02
RMM:   5    -0.411421381245E+03   -0.21068E+03   -0.18016E+03  4320   0.781E+01
RMM:   6    -0.468016023640E+03   -0.56595E+02   -0.50082E+02  4320   0.445E+01
RMM:   7    -0.481552532210E+03   -0.13537E+02   -0.13307E+02  4320   0.228E+01
RMM:   8    -0.485840660601E+03   -0.42881E+01   -0.41067E+01  4320   0.132E+01
RMM:   9    -0.487930183766E+03   -0.20895E+01   -0.21173E+01 13377   0.717E+00
RMM:  10    -0.487849990927E+03    0.80193E-01   -0.21099E+00 14507   0.251E+00
RMM:  11    -0.487850847276E+03   -0.85635E-03   -0.25137E-01 13817   0.557E-01
RMM:  12    -0.487850178049E+03    0.66923E-03   -0.23634E-02 14107   0.141E-01    0.106E+02
RMM:  13    -0.384430158170E+03    0.10342E+03   -0.94397E+02 10893   0.552E+01    0.124E+02
RMM:  14    -0.376811727997E+03    0.76184E+01   -0.47397E+01 11936   0.132E+01    0.711E+01
RMM:  15    -0.390425691128E+03   -0.13614E+02   -0.92349E+01 10940   0.144E+01    0.828E+01
RMM:  16    -0.372209599415E+03    0.18216E+02   -0.39066E+01 11221   0.827E+00    0.403E+01
RMM:  17    -0.370953781552E+03    0.12558E+01   -0.14380E+01 10707   0.631E+00    0.225E+01
RMM:  18    -0.371607509497E+03   -0.65373E+00   -0.33489E+00 11671   0.335E+00    0.108E+01
RMM:  19    -0.372120626485E+03   -0.51312E+00   -0.10716E+00 10810   0.169E+00    0.695E+00
RMM:  20    -0.372596945727E+03   -0.47632E+00   -0.52848E-01 10399   0.109E+00    0.494E+00
RMM:  21    -0.372937025107E+03   -0.34008E+00   -0.18350E-01 10988   0.656E-01    0.380E+00
RMM:  22    -0.373162895806E+03   -0.22587E+00   -0.23510E-01 10439   0.692E-01    0.270E+00
RMM:  23    -0.373274144170E+03   -0.11125E+00   -0.73738E-02 10700   0.398E-01    0.184E+00
RMM:  24    -0.373336158502E+03   -0.62014E-01   -0.52619E-02 10459   0.315E-01    0.122E+00
RMM:  25    -0.373367723048E+03   -0.31565E-01   -0.24354E-02 11009   0.191E-01    0.114E+00
RMM:  26    -0.373380575662E+03   -0.12853E-01   -0.73601E-03 11160   0.132E-01    0.911E-01
RMM:  27    -0.373395233332E+03   -0.14658E-01   -0.34898E-03 10601   0.788E-02    0.808E-01
RMM:  28    -0.373432104139E+03   -0.36871E-01   -0.17439E-02  9824   0.159E-01    0.525E-01
RMM:  29    -0.373464681595E+03   -0.32577E-01   -0.13008E-02  9779   0.124E-01    0.405E-01
RMM:  30    -0.373490253120E+03   -0.25572E-01   -0.10996E-02 10038   0.111E-01    0.338E-01
RMM:  31    -0.373509878288E+03   -0.19625E-01   -0.86826E-03  9867   0.896E-02    0.271E-01
RMM:  32    -0.373522152665E+03   -0.12274E-01   -0.59582E-03  9869   0.774E-02    0.217E-01
RMM:  33    -0.373528823882E+03   -0.66712E-02   -0.33185E-03 10065   0.635E-02    0.178E-01
RMM:  34    -0.373531627158E+03   -0.28033E-02   -0.13874E-03 10395   0.458E-02    0.149E-01
RMM:  35    -0.373533665247E+03   -0.20381E-02   -0.93322E-04  9767   0.376E-02    0.130E-01
RMM:  36    -0.373534957151E+03   -0.12919E-02   -0.90399E-04  9445   0.381E-02    0.110E-01
RMM:  37    -0.373535597312E+03   -0.64016E-03   -0.94423E-04  9554   0.369E-02    0.923E-02
RMM:  38    -0.373536260399E+03   -0.66309E-03   -0.18876E-03  9193   0.553E-02    0.751E-02
RMM:  39    -0.373537132578E+03   -0.87218E-03   -0.13868E-03  9477   0.465E-02    0.612E-02
RMM:  40    -0.373537903047E+03   -0.77047E-03   -0.88983E-04  9381   0.387E-02    0.539E-02
RMM:  41    -0.373538540113E+03   -0.63707E-03   -0.87330E-04  8881   0.357E-02    0.472E-02
RMM:  42    -0.373538986074E+03   -0.44596E-03   -0.25383E-04  9005   0.232E-02    0.384E-02
RMM:  43    -0.373539216163E+03   -0.23009E-03   -0.10457E-04  8197   0.149E-02    0.296E-02
RMM:  44    -0.373539354321E+03   -0.13816E-03   -0.44636E-05  7011   0.943E-03    0.228E-02
RMM:  45    -0.373539473032E+03   -0.11871E-03   -0.32512E-05  6439   0.761E-03    0.177E-02
RMM:  46    -0.373539591602E+03   -0.11857E-03   -0.27485E-05  6290   0.651E-03    0.122E-02
RMM:  47    -0.373539665518E+03   -0.73916E-04   -0.14989E-05  6577   0.521E-03    0.844E-03
RMM:  48    -0.373539673247E+03   -0.77295E-05   -0.11036E-05  6813   0.473E-03
   1 F= -.37353967E+03 E0= -.37354855E+03  d E =0.266292E-01  mag=    34.0047
