       N       E                     dE             d eps       ncg     rms          rms(c)
RMM:   1    -0.160963841696E+04   -0.16096E+04   -0.35930E+05  3888   0.165E+03
RMM:   2     0.809855362451E+03    0.24195E+04   -0.68592E+04  3888   0.457E+02
RMM:   3     0.571811824242E+03   -0.23804E+03   -0.16364E+04  3888   0.258E+02
RMM:   4    -0.603638234261E+02   -0.63218E+03   -0.64073E+03  3888   0.164E+02
RMM:   5    -0.338399449573E+03   -0.27804E+03   -0.25101E+03  3888   0.975E+01
RMM:   6    -0.438173996404E+03   -0.99775E+02   -0.91196E+02  3888   0.603E+01
RMM:   7    -0.468585982369E+03   -0.30412E+02   -0.30506E+02  3888   0.338E+01
RMM:   8    -0.480120938094E+03   -0.11535E+02   -0.11216E+02  3888   0.208E+01
RMM:   9    -0.487738789018E+03   -0.76179E+01   -0.76980E+01 12167   0.121E+01
RMM:  10    -0.487351315857E+03    0.38747E+00   -0.76824E+00 13090   0.390E+00
RMM:  11    -0.487514990372E+03   -0.16367E+00   -0.22390E+00 12554   0.110E+00
RMM:  12    -0.487636688095E+03   -0.12170E+00   -0.12797E+00 12563   0.373E-01    0.105E+02
RMM:  13    -0.381570325017E+03    0.10607E+03   -0.11348E+03  9972   0.648E+01    0.120E+02
RMM:  14    -0.375639560055E+03    0.59308E+01   -0.49363E+01 10805   0.143E+01    0.693E+01
RMM:  15    -0.372734158293E+03    0.29054E+01   -0.46059E+01 10412   0.122E+01    0.504E+01
RMM:  16    -0.372847364137E+03   -0.11321E+00   -0.16903E+01 10671   0.779E+00    0.276E+01
RMM:  17    -0.372831794196E+03    0.15570E-01   -0.47569E+00 10894   0.408E+00    0.108E+01
RMM:  18    -0.373054437311E+03   -0.22264E+00   -0.17711E+00 10823   0.244E+00    0.529E+00
RMM:  19    -0.373133800295E+03   -0.79363E-01   -0.45683E-01 11152   0.115E+00    0.246E+00
RMM:  20    -0.373234928699E+03   -0.10113E+00   -0.13277E-01 10883   0.578E-01    0.188E+00
RMM:  21    -0.373297985592E+03   -0.63057E-01   -0.76996E-02 10692   0.451E-01    0.150E+00
RMM:  22    -0.373352621750E+03   -0.54636E-01   -0.30187E-02 11237   0.253E-01    0.100E+00
RMM:  23    -0.373427726607E+03   -0.75105E-01   -0.18455E-02 10697   0.207E-01    0.638E-01
RMM:  24    -0.373510620834E+03   -0.82894E-01   -0.22595E-02  9762   0.216E-01    0.473E-01
RMM:  25    -0.373553286113E+03   -0.42665E-01   -0.11774E-02 10791   0.138E-01    0.371E-01
RMM:  26    -0.373586920651E+03   -0.33635E-01   -0.91834E-03  9793   0.997E-02    0.304E-01
RMM:  27    -0.373624295216E+03   -0.37375E-01   -0.15982E-02  9087   0.128E-01    0.261E-01
RMM:  28    -0.373652702042E+03   -0.28407E-01   -0.21579E-02  9966   0.127E-01    0.218E-01
RMM:  29    -0.373666369173E+03   -0.13667E-01   -0.14172E-02  9870   0.962E-02    0.181E-01
RMM:  30    -0.373673048970E+03   -0.66798E-02   -0.91508E-03  9636   0.933E-02    0.159E-01
RMM:  31    -0.373672873788E+03    0.17518E-03   -0.83567E-03  9538   0.974E-02    0.124E-01
RMM:  32    -0.373672468660E+03    0.40513E-03   -0.43101E-03  9980   0.702E-02    0.108E-01
RMM:  33    -0.373673827230E+03   -0.13586E-02   -0.25180E-03  9557   0.533E-02    0.955E-02
RMM:  34    -0.373676432688E+03   -0.26055E-02   -0.34569E-03  8944   0.657E-02    0.798E-02
RMM:  35    -0.373679394173E+03   -0.29615E-02   -0.49601E-03  8908   0.783E-02    0.652E-02
RMM:  36    -0.373681433626E+03   -0.20395E-02   -0.27681E-03  9415   0.552E-02    0.484E-02
RMM:  37    -0.373682585796E+03   -0.11522E-02   -0.14602E-03  9272   0.403E-02    0.375E-02
RMM:  38    -0.373683039426E+03   -0.45363E-03   -0.95988E-04  8959   0.322E-02    0.280E-02
RMM:  39    -0.373683263291E+03   -0.22386E-03   -0.47485E-04  8644   0.229E-02    0.228E-02
RMM:  40    -0.373683394135E+03   -0.13084E-03   -0.27678E-04  8294   0.173E-02    0.190E-02
RMM:  41    -0.373683531608E+03   -0.13747E-03   -0.20203E-04  7500   0.146E-02    0.179E-02
RMM:  42    -0.373683657656E+03   -0.12605E-03   -0.13698E-04  7611   0.116E-02    0.148E-02
RMM:  43    -0.373683692953E+03   -0.35297E-04   -0.11095E-04  7487   0.102E-02    0.130E-02
RMM:  44    -0.373683687096E+03    0.58573E-05   -0.11076E-04  7284   0.106E-02    0.116E-02
RMM:  45    -0.373683699030E+03   -0.11934E-04   -0.77459E-05  6631   0.906E-03    0.101E-02
RMM:  46    -0.373683715746E+03   -0.16716E-04   -0.82804E-05  6724   0.931E-03    0.841E-03
RMM:  47    -0.373683760193E+03   -0.44447E-04   -0.70990E-05  6209   0.896E-03    0.720E-03
RMM:  48    -0.373683797696E+03   -0.37504E-04   -0.48599E-05  5712   0.728E-03    0.543E-03
RMM:  49    -0.373683821895E+03   -0.24199E-04   -0.29670E-05  5572   0.571E-03    0.472E-03
RMM:  50    -0.373683835633E+03   -0.13738E-04   -0.22405E-05  5597   0.496E-03    0.361E-03
RMM:  51    -0.373683840168E+03   -0.45347E-05   -0.13856E-05  5211   0.392E-03
   1 F= -.37368384E+03 E0= -.37369261E+03  d E =0.263221E-01  mag=    -0.0080
