       N       E                     dE             d eps       ncg     rms          rms(c)
RMM:   1    -0.161245191815E+04   -0.16125E+04   -0.35938E+05  3888   0.165E+03
RMM:   2     0.809880455425E+03    0.24223E+04   -0.68525E+04  3888   0.457E+02
RMM:   3     0.570228583972E+03   -0.23965E+03   -0.16383E+04  3888   0.258E+02
RMM:   4    -0.591413136805E+02   -0.62937E+03   -0.63963E+03  3888   0.164E+02
RMM:   5    -0.337617820637E+03   -0.27848E+03   -0.25130E+03  3888   0.975E+01
RMM:   6    -0.437922631672E+03   -0.10030E+03   -0.91635E+02  3888   0.603E+01
RMM:   7    -0.468400893023E+03   -0.30478E+02   -0.30579E+02  3888   0.338E+01
RMM:   8    -0.480022558492E+03   -0.11622E+02   -0.11280E+02  3888   0.209E+01
RMM:   9    -0.487650980508E+03   -0.76284E+01   -0.77086E+01 12195   0.122E+01
RMM:  10    -0.487273251260E+03    0.37773E+00   -0.77650E+00 13104   0.390E+00
RMM:  11    -0.487444247481E+03   -0.17100E+00   -0.23070E+00 12548   0.110E+00
RMM:  12    -0.487566632310E+03   -0.12238E+00   -0.13206E+00 12527   0.378E-01    0.105E+02
RMM:  13    -0.381540832232E+03    0.10603E+03   -0.11393E+03  9970   0.651E+01    0.121E+02
RMM:  14    -0.375031897972E+03    0.65089E+01   -0.51589E+01 10813   0.146E+01    0.697E+01
RMM:  15    -0.373404776151E+03    0.16271E+01   -0.47167E+01 10443   0.120E+01    0.522E+01
RMM:  16    -0.373499898020E+03   -0.95122E-01   -0.27380E+01 10466   0.970E+00    0.291E+01
RMM:  17    -0.372813740980E+03    0.68616E+00   -0.77889E+00 10739   0.518E+00    0.116E+01
RMM:  18    -0.373088320514E+03   -0.27458E+00   -0.14610E+00 11186   0.201E+00    0.483E+00
RMM:  19    -0.373227652899E+03   -0.13933E+00   -0.54593E-01 10971   0.119E+00    0.296E+00
RMM:  20    -0.373291448352E+03   -0.63795E-01   -0.23625E-01 10865   0.801E-01    0.213E+00
RMM:  21    -0.373315087769E+03   -0.23639E-01   -0.10126E-01 10963   0.471E-01    0.175E+00
RMM:  22    -0.373321428495E+03   -0.63407E-02   -0.72029E-02 10680   0.423E-01    0.972E-01
RMM:  23    -0.373326522557E+03   -0.50941E-02   -0.17721E-02 11034   0.216E-01    0.712E-01
RMM:  24    -0.373329992846E+03   -0.34703E-02   -0.11821E-02 10575   0.170E-01    0.407E-01
RMM:  25    -0.373333610649E+03   -0.36178E-02   -0.63626E-03 10514   0.114E-01    0.328E-01
RMM:  26    -0.373337670198E+03   -0.40595E-02   -0.41336E-03 10015   0.851E-02    0.277E-01
RMM:  27    -0.373341642043E+03   -0.39718E-02   -0.45822E-03  9329   0.846E-02    0.229E-01
RMM:  28    -0.373345798531E+03   -0.41565E-02   -0.55002E-03  9233   0.889E-02    0.203E-01
RMM:  29    -0.373349971154E+03   -0.41726E-02   -0.65420E-03  9249   0.924E-02    0.186E-01
RMM:  30    -0.373353787815E+03   -0.38167E-02   -0.69010E-03  9338   0.909E-02    0.150E-01
RMM:  31    -0.373355236085E+03   -0.14483E-02   -0.94039E-03  9310   0.102E-01    0.121E-01
RMM:  32    -0.373356311197E+03   -0.10751E-02   -0.75443E-03  9531   0.901E-02    0.100E-01
RMM:  33    -0.373358128362E+03   -0.18172E-02   -0.26114E-03  9859   0.564E-02    0.814E-02
RMM:  34    -0.373359716661E+03   -0.15883E-02   -0.35907E-03  8753   0.614E-02    0.689E-02
RMM:  35    -0.373360892097E+03   -0.11754E-02   -0.35627E-03  8812   0.623E-02    0.559E-02
RMM:  36    -0.373361757504E+03   -0.86541E-03   -0.25256E-03  9235   0.523E-02    0.450E-02
RMM:  37    -0.373362316086E+03   -0.55858E-03   -0.16224E-03  9064   0.415E-02    0.368E-02
RMM:  38    -0.373362658259E+03   -0.34217E-03   -0.78896E-04  8939   0.302E-02    0.268E-02
RMM:  39    -0.373362840996E+03   -0.18274E-03   -0.39755E-04  8510   0.213E-02    0.233E-02
RMM:  40    -0.373362933485E+03   -0.92489E-04   -0.19920E-04  8141   0.153E-02    0.195E-02
RMM:  41    -0.373363044872E+03   -0.11139E-03   -0.22106E-04  7954   0.158E-02    0.189E-02
RMM:  42    -0.373363070419E+03   -0.25547E-04   -0.94311E-05  7616   0.116E-02    0.150E-02
RMM:  43    -0.373363064574E+03    0.58451E-05   -0.62381E-05  6963   0.102E-02
   1 F= -.37336306E+03 E0= -.37337149E+03  d E =0.252619E-01  mag=    10.1060
