       N       E                     dE             d eps       ncg     rms          rms(c)
RMM:   1    -0.160479750258E+04   -0.16048E+04   -0.35931E+05  3888   0.165E+03
RMM:   2     0.811115400634E+03    0.24159E+04   -0.68531E+04  3888   0.457E+02
RMM:   3     0.570419068633E+03   -0.24070E+03   -0.16373E+04  3888   0.258E+02
RMM:   4    -0.602685153728E+02   -0.63069E+03   -0.64047E+03  3888   0.164E+02
RMM:   5    -0.338437457982E+03   -0.27817E+03   -0.25118E+03  3888   0.975E+01
RMM:   6    -0.438320326002E+03   -0.99883E+02   -0.91391E+02  3888   0.603E+01
RMM:   7    -0.468661886578E+03   -0.30342E+02   -0.30454E+02  3888   0.338E+01
RMM:   8    -0.480168321764E+03   -0.11506E+02   -0.11197E+02  3888   0.208E+01
RMM:   9    -0.487788267078E+03   -0.76199E+01   -0.77044E+01 12172   0.121E+01
RMM:  10    -0.487403807824E+03    0.38446E+00   -0.77589E+00 13096   0.390E+00
RMM:  11    -0.487562198600E+03   -0.15839E+00   -0.22272E+00 12546   0.109E+00
RMM:  12    -0.487676333662E+03   -0.11414E+00   -0.12413E+00 12524   0.371E-01    0.105E+02
RMM:  13    -0.380581765497E+03    0.10709E+03   -0.11378E+03  9987   0.649E+01    0.121E+02
RMM:  14    -0.375055221785E+03    0.55265E+01   -0.47400E+01 10915   0.141E+01    0.700E+01
RMM:  15    -0.373076482923E+03    0.19787E+01   -0.38333E+01 10592   0.115E+01    0.477E+01
RMM:  16    -0.373046170373E+03    0.30313E-01   -0.15729E+01 10712   0.749E+00    0.246E+01
RMM:  17    -0.373143782430E+03   -0.97612E-01   -0.47821E+00 10925   0.400E+00    0.101E+01
RMM:  18    -0.373263249344E+03   -0.11947E+00   -0.12520E+00 10857   0.208E+00    0.451E+00
RMM:  19    -0.373303043727E+03   -0.39794E-01   -0.42160E-01 10717   0.119E+00    0.236E+00
RMM:  20    -0.373316571408E+03   -0.13528E-01   -0.92750E-02 11076   0.561E-01    0.164E+00
RMM:  21    -0.373319674470E+03   -0.31031E-02   -0.49548E-02 10597   0.390E-01    0.918E-01
RMM:  22    -0.373324952967E+03   -0.52785E-02   -0.20045E-02 10924   0.246E-01    0.726E-01
RMM:  23    -0.373327035524E+03   -0.20826E-02   -0.13700E-02 10611   0.197E-01    0.486E-01
RMM:  24    -0.373328961913E+03   -0.19264E-02   -0.69198E-03 10810   0.130E-01    0.321E-01
RMM:  25    -0.373331138043E+03   -0.21761E-02   -0.42964E-03 10200   0.934E-02    0.243E-01
RMM:  26    -0.373333343613E+03   -0.22056E-02   -0.23194E-03 10372   0.619E-02    0.210E-01
RMM:  27    -0.373336070968E+03   -0.27274E-02   -0.34144E-03  9352   0.716E-02    0.193E-01
RMM:  28    -0.373339605038E+03   -0.35341E-02   -0.53697E-03  9302   0.855E-02    0.176E-01
RMM:  29    -0.373342854918E+03   -0.32499E-02   -0.45325E-03  9646   0.728E-02    0.147E-01
RMM:  30    -0.373345845004E+03   -0.29901E-02   -0.54457E-03  9327   0.790E-02    0.124E-01
RMM:  31    -0.373347279542E+03   -0.14345E-02   -0.78866E-03  9504   0.877E-02    0.101E-01
RMM:  32    -0.373348784402E+03   -0.15049E-02   -0.41419E-03  9761   0.652E-02    0.821E-02
RMM:  33    -0.373349713429E+03   -0.92903E-03   -0.19983E-03  9868   0.434E-02    0.717E-02
RMM:  34    -0.373350530352E+03   -0.81692E-03   -0.17589E-03  8924   0.389E-02    0.621E-02
RMM:  35    -0.373351442303E+03   -0.91195E-03   -0.33791E-03  8705   0.590E-02    0.557E-02
RMM:  36    -0.373352179219E+03   -0.73692E-03   -0.27697E-03  8979   0.513E-02    0.460E-02
RMM:  37    -0.373352724916E+03   -0.54570E-03   -0.21358E-03  9247   0.448E-02    0.375E-02
RMM:  38    -0.373353107343E+03   -0.38243E-03   -0.14559E-03  9274   0.369E-02    0.311E-02
RMM:  39    -0.373353354074E+03   -0.24673E-03   -0.66951E-04  8815   0.255E-02    0.267E-02
RMM:  40    -0.373353502636E+03   -0.14856E-03   -0.55871E-04  8509   0.222E-02    0.237E-02
RMM:  41    -0.373353544596E+03   -0.41960E-04   -0.44515E-04  8426   0.204E-02    0.211E-02
RMM:  42    -0.373353546586E+03   -0.19901E-05   -0.26513E-04  8215   0.168E-02    0.183E-02
RMM:  43    -0.373353550492E+03   -0.39055E-05   -0.35751E-04  8080   0.203E-02    0.162E-02
RMM:  44    -0.373353622850E+03   -0.72359E-04   -0.33242E-04  8051   0.189E-02    0.155E-02
RMM:  45    -0.373353702908E+03   -0.80058E-04   -0.17067E-04  7820   0.139E-02    0.109E-02
RMM:  46    -0.373353805224E+03   -0.10232E-03   -0.17741E-04  7810   0.139E-02    0.953E-03
RMM:  47    -0.373353884207E+03   -0.78982E-04   -0.64113E-05  6530   0.909E-03    0.633E-03
RMM:  48    -0.373353921842E+03   -0.37635E-04   -0.54848E-05  6340   0.737E-03    0.582E-03
RMM:  49    -0.373353933717E+03   -0.11875E-04   -0.28993E-05  5866   0.560E-03    0.431E-03
RMM:  50    -0.373353934198E+03   -0.48087E-06   -0.27055E-05  5894   0.516E-03
   1 F= -.37335393E+03 E0= -.37336251E+03  d E =0.257257E-01  mag=     9.9758
