       N       E                     dE             d eps       ncg     rms          rms(c)
RMM:   1    -0.161269506794E+04   -0.16127E+04   -0.35938E+05  3888   0.165E+03
RMM:   2     0.809604638361E+03    0.24223E+04   -0.68522E+04  3888   0.457E+02
RMM:   3     0.569507112510E+03   -0.24010E+03   -0.16379E+04  3888   0.258E+02
RMM:   4    -0.606793730626E+02   -0.63019E+03   -0.63981E+03  3888   0.164E+02
RMM:   5    -0.337986759396E+03   -0.27731E+03   -0.25054E+03  3888   0.974E+01
RMM:   6    -0.437617120551E+03   -0.99630E+02   -0.91054E+02  3888   0.602E+01
RMM:   7    -0.468165148759E+03   -0.30548E+02   -0.30604E+02  3888   0.338E+01
RMM:   8    -0.479841275135E+03   -0.11676E+02   -0.11317E+02  3888   0.209E+01
RMM:   9    -0.487559777740E+03   -0.77185E+01   -0.77931E+01 12192   0.122E+01
RMM:  10    -0.487177109288E+03    0.38267E+00   -0.77410E+00 13071   0.389E+00
RMM:  11    -0.487363570483E+03   -0.18646E+00   -0.23866E+00 12570   0.110E+00
RMM:  12    -0.487495976592E+03   -0.13241E+00   -0.14052E+00 12527   0.379E-01    0.105E+02
RMM:  13    -0.382025086521E+03    0.10547E+03   -0.11372E+03  9947   0.654E+01    0.120E+02
RMM:  14    -0.375745397279E+03    0.62797E+01   -0.49501E+01 10802   0.147E+01    0.688E+01
RMM:  15    -0.375827536266E+03   -0.82139E-01   -0.55509E+01 10649   0.134E+01    0.653E+01
RMM:  16    -0.375172290632E+03    0.65525E+00   -0.41522E+01 10298   0.107E+01    0.505E+01
RMM:  17    -0.378741314258E+03   -0.35690E+01   -0.53857E+01 10362   0.115E+01    0.534E+01
RMM:  18    -0.366803948520E+03    0.11937E+02   -0.18816E+01 10711   0.733E+00    0.248E+01
RMM:  19    -0.366489371203E+03    0.31458E+00   -0.72031E+00 10469   0.436E+00    0.263E+01
RMM:  20    -0.368807277448E+03   -0.23179E+01   -0.37971E+00 10282   0.285E+00    0.172E+01
RMM:  21    -0.370554872176E+03   -0.17476E+01   -0.14241E+00 10440   0.191E+00    0.137E+01
RMM:  22    -0.372165919507E+03   -0.16110E+01   -0.11987E+00 10048   0.137E+00    0.921E+00
RMM:  23    -0.373380807084E+03   -0.12149E+01   -0.18174E+00  9714   0.165E+00    0.384E+00
RMM:  24    -0.373600326534E+03   -0.21952E+00   -0.42123E-01 10849   0.925E-01    0.220E+00
RMM:  25    -0.373680357539E+03   -0.80031E-01   -0.12940E-01 10415   0.596E-01    0.153E+00
RMM:  26    -0.373727988412E+03   -0.47631E-01   -0.88674E-02 10235   0.432E-01    0.120E+00
RMM:  27    -0.373756431447E+03   -0.28443E-01   -0.18077E-02 11862   0.178E-01    0.861E-01
RMM:  28    -0.373785357566E+03   -0.28926E-01   -0.13706E-02  9892   0.157E-01    0.562E-01
RMM:  29    -0.373812697579E+03   -0.27340E-01   -0.27913E-02  9987   0.184E-01    0.321E-01
RMM:  30    -0.373820208233E+03   -0.75107E-02   -0.13220E-02 10545   0.105E-01    0.262E-01
RMM:  31    -0.373824628532E+03   -0.44203E-02   -0.56038E-03  9415   0.883E-02    0.229E-01
RMM:  32    -0.373828568140E+03   -0.39396E-02   -0.55879E-03  9202   0.895E-02    0.205E-01
RMM:  33    -0.373831332093E+03   -0.27640E-02   -0.38712E-03  9545   0.727E-02    0.183E-01
RMM:  34    -0.373833944536E+03   -0.26124E-02   -0.41970E-03  9397   0.704E-02    0.159E-01
RMM:  35    -0.373835092431E+03   -0.11479E-02   -0.52193E-03  9291   0.748E-02    0.115E-01
RMM:  36    -0.373834027032E+03    0.10654E-02   -0.71419E-03  9316   0.881E-02    0.996E-02
RMM:  37    -0.373836399398E+03   -0.23724E-02   -0.28834E-03  9780   0.550E-02    0.800E-02
RMM:  38    -0.373837745202E+03   -0.13458E-02   -0.16012E-03  9241   0.383E-02    0.611E-02
RMM:  39    -0.373838403723E+03   -0.65852E-03   -0.11928E-03  8856   0.316E-02    0.628E-02
RMM:  40    -0.373838659513E+03   -0.25579E-03   -0.40954E-04  8537   0.206E-02    0.581E-02
RMM:  41    -0.373839017139E+03   -0.35763E-03   -0.10040E-03  8588   0.323E-02    0.489E-02
RMM:  42    -0.373839698943E+03   -0.68180E-03   -0.16611E-03  8605   0.458E-02    0.372E-02
RMM:  43    -0.373840544908E+03   -0.84596E-03   -0.75425E-04  8702   0.282E-02    0.348E-02
RMM:  44    -0.373840756350E+03   -0.21144E-03   -0.15705E-04  8296   0.160E-02    0.301E-02
RMM:  45    -0.373840806228E+03   -0.49878E-04   -0.56005E-05  6438   0.793E-03    0.289E-02
RMM:  46    -0.373840797247E+03    0.89815E-05   -0.78023E-06  5213   0.520E-03
   1 F= -.37384080E+03 E0= -.37384902E+03  d E =0.246796E-01  mag=     9.9356
