       N       E                     dE             d eps       ncg     rms          rms(c)
RMM:   1    -0.206382859435E+04   -0.20638E+04   -0.34928E+05  4320   0.146E+03
RMM:   2     0.891027116836E+03    0.29549E+04   -0.62651E+04  4320   0.389E+02
RMM:   3     0.413849998094E+03   -0.47718E+03   -0.14844E+04  4320   0.223E+02
RMM:   4    -0.200421604549E+03   -0.61427E+03   -0.56609E+03  4320   0.140E+02
RMM:   5    -0.411248107630E+03   -0.21083E+03   -0.18023E+03  4320   0.781E+01
RMM:   6    -0.468052576751E+03   -0.56804E+02   -0.50217E+02  4320   0.445E+01
RMM:   7    -0.481574285365E+03   -0.13522E+02   -0.13301E+02  4320   0.227E+01
RMM:   8    -0.485858530783E+03   -0.42842E+01   -0.41098E+01  4320   0.132E+01
RMM:   9    -0.487955269294E+03   -0.20967E+01   -0.21239E+01 13331   0.718E+00
RMM:  10    -0.487867478410E+03    0.87791E-01   -0.21041E+00 14511   0.252E+00
RMM:  11    -0.487867017559E+03    0.46085E-03   -0.24227E-01 13805   0.556E-01
RMM:  12    -0.487866384820E+03    0.63274E-03   -0.22385E-02 14123   0.140E-01    0.106E+02
RMM:  13    -0.383379055855E+03    0.10449E+03   -0.94700E+02 10878   0.555E+01    0.123E+02
RMM:  14    -0.374801216036E+03    0.85778E+01   -0.39808E+01 11736   0.126E+01    0.689E+01
RMM:  15    -0.371358314374E+03    0.34429E+01   -0.43939E+01 10729   0.107E+01    0.627E+01
RMM:  16    -0.376322081310E+03   -0.49638E+01   -0.20596E+01 10974   0.718E+00    0.627E+01
RMM:  17    -0.381959362817E+03   -0.56373E+01   -0.83470E+01 11258   0.125E+01    0.482E+01
RMM:  18    -0.366468669012E+03    0.15491E+02   -0.14688E+01 11443   0.589E+00    0.225E+01
RMM:  19    -0.366759787295E+03   -0.29112E+00   -0.50427E+00 10916   0.356E+00    0.148E+01
RMM:  20    -0.367541946842E+03   -0.78216E+00   -0.57231E-01 11516   0.135E+00    0.117E+01
RMM:  21    -0.368751570483E+03   -0.12096E+01   -0.66067E-01 10420   0.120E+00    0.836E+00
RMM:  22    -0.369529001416E+03   -0.77743E+00   -0.49350E-01 10309   0.106E+00    0.547E+00
RMM:  23    -0.369949276833E+03   -0.42028E+00   -0.28717E-01 10650   0.834E-01    0.397E+00
RMM:  24    -0.370253977999E+03   -0.30470E+00   -0.12694E-01 10633   0.512E-01    0.305E+00
RMM:  25    -0.370640194729E+03   -0.38622E+00   -0.15238E-01  9805   0.459E-01    0.223E+00
RMM:  26    -0.371075130362E+03   -0.43494E+00   -0.20303E-01  9586   0.478E-01    0.144E+00
RMM:  27    -0.371443676126E+03   -0.36855E+00   -0.18818E-01  9844   0.429E-01    0.977E-01
RMM:  28    -0.371644601255E+03   -0.20093E+00   -0.78413E-02 10623   0.268E-01    0.706E-01
RMM:  29    -0.371823052992E+03   -0.17845E+00   -0.68972E-02  9831   0.233E-01    0.612E-01
RMM:  30    -0.371960263883E+03   -0.13721E+00   -0.53277E-02 10371   0.200E-01    0.481E-01
RMM:  31    -0.372005963255E+03   -0.45699E-01   -0.19776E-02 11074   0.140E-01    0.356E-01
RMM:  32    -0.372020793376E+03   -0.14830E-01   -0.62640E-03 10927   0.798E-02    0.279E-01
RMM:  33    -0.372030434070E+03   -0.96407E-02   -0.38760E-03  9900   0.641E-02    0.227E-01
RMM:  34    -0.372038143350E+03   -0.77093E-02   -0.38118E-03  9991   0.651E-02    0.172E-01
RMM:  35    -0.372041481077E+03   -0.33377E-02   -0.18957E-03 10022   0.497E-02    0.145E-01
RMM:  36    -0.372043366107E+03   -0.18850E-02   -0.13836E-03  9879   0.435E-02    0.130E-01
RMM:  37    -0.372045692569E+03   -0.23265E-02   -0.14969E-03  9331   0.476E-02    0.115E-01
RMM:  38    -0.372047900474E+03   -0.22079E-02   -0.19507E-03  9107   0.528E-02    0.991E-02
RMM:  39    -0.372049619626E+03   -0.17192E-02   -0.20977E-03  9092   0.525E-02    0.822E-02
RMM:  40    -0.372050530294E+03   -0.91067E-03   -0.21023E-03  9166   0.537E-02    0.647E-02
RMM:  41    -0.372050762817E+03   -0.23252E-03   -0.14673E-03  9441   0.451E-02    0.463E-02
RMM:  42    -0.372051349416E+03   -0.58660E-03   -0.38333E-04  9635   0.284E-02    0.308E-02
RMM:  43    -0.372051632037E+03   -0.28262E-03   -0.15008E-04  8652   0.169E-02    0.215E-02
RMM:  44    -0.372052007101E+03   -0.37506E-03   -0.12398E-04  7716   0.136E-02    0.172E-02
RMM:  45    -0.372052226722E+03   -0.21962E-03   -0.46933E-05  7333   0.935E-03    0.123E-02
RMM:  46    -0.372052353636E+03   -0.12691E-03   -0.25014E-05  6714   0.674E-03    0.100E-02
RMM:  47    -0.372052427820E+03   -0.74184E-04   -0.10615E-05  6265   0.507E-03    0.857E-03
RMM:  48    -0.372052465974E+03   -0.38154E-04   -0.90893E-06  6144   0.422E-03    0.780E-03
RMM:  49    -0.372052478889E+03   -0.12915E-04   -0.12685E-05  6258   0.505E-03    0.736E-03
RMM:  50    -0.372052487376E+03   -0.84869E-05   -0.55615E-06  6114   0.373E-03
   1 F= -.37205249E+03 E0= -.37205904E+03  d E =0.196548E-01  mag=    28.0043
