       N       E                     dE             d eps       ncg     rms          rms(c)
RMM:   1    -0.206432270007E+04   -0.20643E+04   -0.34984E+05  4320   0.146E+03
RMM:   2     0.892683847420E+03    0.29570E+04   -0.62782E+04  4320   0.389E+02
RMM:   3     0.413065513845E+03   -0.47962E+03   -0.14919E+04  4320   0.223E+02
RMM:   4    -0.199371693001E+03   -0.61244E+03   -0.56813E+03  4320   0.140E+02
RMM:   5    -0.411035517050E+03   -0.21166E+03   -0.18155E+03  4320   0.782E+01
RMM:   6    -0.468231089856E+03   -0.57196E+02   -0.50724E+02  4320   0.445E+01
RMM:   7    -0.481746173863E+03   -0.13515E+02   -0.13343E+02  4320   0.228E+01
RMM:   8    -0.486026056074E+03   -0.42799E+01   -0.41080E+01  4320   0.132E+01
RMM:   9    -0.488114572887E+03   -0.20885E+01   -0.21153E+01 13394   0.720E+00
RMM:  10    -0.488019467634E+03    0.95105E-01   -0.20153E+00 14547   0.248E+00
RMM:  11    -0.488017674296E+03    0.17933E-02   -0.22248E-01 13801   0.541E-01
RMM:  12    -0.488016895735E+03    0.77856E-03   -0.19014E-02 14212   0.136E-01    0.105E+02
RMM:  13    -0.383592211580E+03    0.10442E+03   -0.93899E+02 10897   0.549E+01    0.125E+02
RMM:  14    -0.376268520420E+03    0.73237E+01   -0.44923E+01 11878   0.127E+01    0.733E+01
RMM:  15    -0.390085125880E+03   -0.13817E+02   -0.10563E+02 10745   0.149E+01    0.862E+01
RMM:  16    -0.372391418325E+03    0.17694E+02   -0.42321E+01 11139   0.879E+00    0.410E+01
RMM:  17    -0.371442221574E+03    0.94920E+00   -0.18379E+01 10904   0.678E+00    0.268E+01
RMM:  18    -0.371509152922E+03   -0.66931E-01   -0.49352E+00 11789   0.386E+00    0.109E+01
RMM:  19    -0.372045287317E+03   -0.53613E+00   -0.12394E+00 10937   0.190E+00    0.725E+00
RMM:  20    -0.372230270323E+03   -0.18498E+00   -0.85362E-01 10999   0.136E+00    0.593E+00
RMM:  21    -0.372383077781E+03   -0.15281E+00   -0.20551E-01 10932   0.695E-01    0.453E+00
RMM:  22    -0.372645515808E+03   -0.26244E+00   -0.26744E-01 10032   0.743E-01    0.283E+00
RMM:  23    -0.372808649090E+03   -0.16313E+00   -0.22599E-01 10467   0.646E-01    0.199E+00
RMM:  24    -0.372878002481E+03   -0.69353E-01   -0.30621E-02 11863   0.262E-01    0.153E+00
RMM:  25    -0.372921445659E+03   -0.43443E-01   -0.39071E-02 10181   0.261E-01    0.936E-01
RMM:  26    -0.372981962711E+03   -0.60517E-01   -0.17690E-02 10303   0.158E-01    0.690E-01
RMM:  27    -0.373033976797E+03   -0.52014E-01   -0.15674E-02  9575   0.133E-01    0.453E-01
RMM:  28    -0.373104587260E+03   -0.70610E-01   -0.28837E-02  9676   0.166E-01    0.475E-01
RMM:  29    -0.373129224038E+03   -0.24637E-01   -0.84174E-03 10430   0.102E-01    0.395E-01
RMM:  30    -0.373154139984E+03   -0.24916E-01   -0.73835E-03  9827   0.793E-02    0.286E-01
RMM:  31    -0.373181615107E+03   -0.27475E-01   -0.11998E-02  9223   0.105E-01    0.221E-01
RMM:  32    -0.373191347850E+03   -0.97327E-02   -0.38591E-03 10641   0.657E-02    0.187E-01
RMM:  33    -0.373197127652E+03   -0.57798E-02   -0.23424E-03 10027   0.532E-02    0.160E-01
RMM:  34    -0.373200487464E+03   -0.33598E-02   -0.27016E-03  9438   0.619E-02    0.140E-01
RMM:  35    -0.373201034545E+03   -0.54708E-03   -0.22028E-03  9840   0.567E-02    0.125E-01
RMM:  36    -0.373201714257E+03   -0.67971E-03   -0.12020E-03 10187   0.427E-02    0.109E-01
RMM:  37    -0.373203887339E+03   -0.21731E-02   -0.26780E-03  9042   0.645E-02    0.952E-02
RMM:  38    -0.373205926851E+03   -0.20395E-02   -0.30112E-03  8972   0.666E-02    0.726E-02
RMM:  39    -0.373207178416E+03   -0.12516E-02   -0.30560E-03  9047   0.695E-02    0.618E-02
RMM:  40    -0.373208201994E+03   -0.10236E-02   -0.98588E-04  9519   0.438E-02    0.500E-02
RMM:  41    -0.373208769670E+03   -0.56768E-03   -0.34391E-04  9346   0.277E-02    0.350E-02
RMM:  42    -0.373209014760E+03   -0.24509E-03   -0.24957E-04  8279   0.202E-02    0.296E-02
RMM:  43    -0.373209176218E+03   -0.16146E-03   -0.13353E-04  8192   0.149E-02    0.243E-02
RMM:  44    -0.373209367810E+03   -0.19159E-03   -0.89238E-05  7362   0.121E-02    0.212E-02
RMM:  45    -0.373209576023E+03   -0.20821E-03   -0.67959E-05  7283   0.103E-02    0.188E-02
RMM:  46    -0.373209658751E+03   -0.82727E-04   -0.12264E-04  7974   0.141E-02    0.180E-02
RMM:  47    -0.373209659697E+03   -0.94603E-06   -0.11824E-04  8429   0.134E-02    0.159E-02
RMM:  48    -0.373209657364E+03    0.23324E-05   -0.84984E-05  8022   0.116E-02
   1 F= -.37320966E+03 E0= -.37321837E+03  d E =0.261484E-01  mag=    44.0044
