       N       E                     dE             d eps       ncg     rms          rms(c)
RMM:   1    -0.160996988764E+04   -0.16100E+04   -0.35906E+05  3888   0.165E+03
RMM:   2     0.807763820045E+03    0.24177E+04   -0.68524E+04  3888   0.457E+02
RMM:   3     0.571104198912E+03   -0.23666E+03   -0.16405E+04  3888   0.258E+02
RMM:   4    -0.594713779872E+02   -0.63058E+03   -0.64145E+03  3888   0.164E+02
RMM:   5    -0.337982473958E+03   -0.27851E+03   -0.25124E+03  3888   0.975E+01
RMM:   6    -0.437969410686E+03   -0.99987E+02   -0.91579E+02  3888   0.602E+01
RMM:   7    -0.468441412091E+03   -0.30472E+02   -0.30616E+02  3888   0.338E+01
RMM:   8    -0.480105916598E+03   -0.11665E+02   -0.11329E+02  3888   0.210E+01
RMM:   9    -0.487801125876E+03   -0.76952E+01   -0.77814E+01 12176   0.122E+01
RMM:  10    -0.487426347453E+03    0.37478E+00   -0.77939E+00 13109   0.395E+00
RMM:  11    -0.487602728819E+03   -0.17638E+00   -0.23169E+00 12570   0.109E+00
RMM:  12    -0.487730058739E+03   -0.12733E+00   -0.13551E+00 12506   0.376E-01    0.105E+02
RMM:  13    -0.382590545861E+03    0.10514E+03   -0.11456E+03  9959   0.653E+01    0.123E+02
RMM:  14    -0.376601110829E+03    0.59894E+01   -0.59932E+01 10770   0.150E+01    0.722E+01
RMM:  15    -0.385050944672E+03   -0.84498E+01   -0.10847E+02 10721   0.169E+01    0.844E+01
RMM:  16    -0.372748223110E+03    0.12303E+02   -0.50768E+01 10257   0.108E+01    0.419E+01
RMM:  17    -0.378299590995E+03   -0.55514E+01   -0.20759E+01 10609   0.802E+00    0.649E+01
RMM:  18    -0.366566119441E+03    0.11733E+02   -0.27380E+01 10369   0.778E+00    0.189E+01
RMM:  19    -0.365345780137E+03    0.12203E+01   -0.28896E+00 10931   0.291E+00    0.156E+01
RMM:  20    -0.368199218543E+03   -0.28534E+01   -0.23188E+00  9718   0.200E+00    0.124E+01
RMM:  21    -0.369858012770E+03   -0.16588E+01   -0.99853E-01 10332   0.137E+00    0.118E+01
RMM:  22    -0.370440909413E+03   -0.58290E+00   -0.84718E-01 10524   0.142E+00    0.102E+01
RMM:  23    -0.371465647780E+03   -0.10247E+01   -0.94450E-01  9993   0.139E+00    0.769E+00
RMM:  24    -0.372660462649E+03   -0.11948E+01   -0.15648E+00  9494   0.174E+00    0.412E+00
RMM:  25    -0.373245493762E+03   -0.58503E+00   -0.61950E-01 10898   0.963E-01    0.313E+00
RMM:  26    -0.373464387688E+03   -0.21889E+00   -0.26234E-01 10334   0.636E-01    0.217E+00
RMM:  27    -0.373504833391E+03   -0.40446E-01   -0.62379E-02 10855   0.382E-01    0.150E+00
RMM:  28    -0.373536952027E+03   -0.32119E-01   -0.50496E-02  9779   0.293E-01    0.190E+00
RMM:  29    -0.373591226241E+03   -0.54274E-01   -0.32151E-02 10180   0.269E-01    0.136E+00
RMM:  30    -0.373633028104E+03   -0.41802E-01   -0.24652E-02 10151   0.193E-01    0.871E-01
RMM:  31    -0.373663119088E+03   -0.30091E-01   -0.15801E-02 10112   0.172E-01    0.630E-01
RMM:  32    -0.373674582849E+03   -0.11464E-01   -0.61223E-03 10430   0.109E-01    0.542E-01
RMM:  33    -0.373702139718E+03   -0.27557E-01   -0.81853E-03  9331   0.114E-01    0.446E-01
RMM:  34    -0.373755469424E+03   -0.53330E-01   -0.24791E-02  9033   0.173E-01    0.476E-01
RMM:  35    -0.373790871154E+03   -0.35402E-01   -0.21754E-02 10188   0.127E-01    0.287E-01
RMM:  36    -0.373813930491E+03   -0.23059E-01   -0.18611E-02 10186   0.114E-01    0.228E-01
RMM:  37    -0.373823777555E+03   -0.98471E-02   -0.85897E-03 10186   0.857E-02    0.169E-01
RMM:  38    -0.373829547893E+03   -0.57703E-02   -0.58071E-03  9923   0.854E-02    0.138E-01
RMM:  39    -0.373831531705E+03   -0.19838E-02   -0.35768E-03 10101   0.608E-02    0.131E-01
RMM:  40    -0.373832419929E+03   -0.88822E-03   -0.16640E-03  9879   0.431E-02    0.111E-01
RMM:  41    -0.373833587503E+03   -0.11676E-02   -0.19893E-03  9392   0.483E-02    0.911E-02
RMM:  42    -0.373835317698E+03   -0.17302E-02   -0.23606E-03  9175   0.549E-02    0.675E-02
RMM:  43    -0.373836341721E+03   -0.10240E-02   -0.20771E-03  9215   0.500E-02    0.697E-02
RMM:  44    -0.373836956269E+03   -0.61455E-03   -0.20897E-03  9311   0.491E-02    0.587E-02
RMM:  45    -0.373837239607E+03   -0.28334E-03   -0.14057E-03  9275   0.394E-02    0.437E-02
RMM:  46    -0.373837526532E+03   -0.28692E-03   -0.52783E-04  9062   0.253E-02    0.316E-02
RMM:  47    -0.373837801708E+03   -0.27518E-03   -0.36505E-04  8526   0.196E-02    0.211E-02
RMM:  48    -0.373838008763E+03   -0.20706E-03   -0.23287E-04  8199   0.153E-02    0.164E-02
RMM:  49    -0.373838194567E+03   -0.18580E-03   -0.95950E-05  7226   0.109E-02    0.139E-02
RMM:  50    -0.373838405407E+03   -0.21084E-03   -0.69937E-05  6998   0.816E-03    0.117E-02
RMM:  51    -0.373838502445E+03   -0.97038E-04   -0.63398E-05  6973   0.711E-03    0.106E-02
RMM:  52    -0.373838488951E+03    0.13494E-04   -0.68052E-05  6981   0.870E-03    0.937E-03
RMM:  53    -0.373838479482E+03    0.94689E-05   -0.38968E-05  6047   0.688E-03
   1 F= -.37383848E+03 E0= -.37384720E+03  d E =0.261532E-01  mag=   -16.0489
