       N       E                     dE             d eps       ncg     rms          rms(c)
RMM:   1    -0.160959508562E+04   -0.16096E+04   -0.36043E+05  3888   0.165E+03
RMM:   2     0.807767349520E+03    0.24174E+04   -0.68496E+04  3888   0.458E+02
RMM:   3     0.570234557217E+03   -0.23753E+03   -0.16508E+04  3888   0.258E+02
RMM:   4    -0.572814385561E+02   -0.62752E+03   -0.64409E+03  3888   0.164E+02
RMM:   5    -0.334070901707E+03   -0.27679E+03   -0.25065E+03  3888   0.973E+01
RMM:   6    -0.435899753161E+03   -0.10183E+03   -0.93000E+02  3888   0.600E+01
RMM:   7    -0.467562066706E+03   -0.31662E+02   -0.31623E+02  3888   0.339E+01
RMM:   8    -0.479973439957E+03   -0.12411E+02   -0.11938E+02  3888   0.212E+01
RMM:   9    -0.488331211815E+03   -0.83578E+01   -0.84434E+01 12159   0.124E+01
RMM:  10    -0.487845928370E+03    0.48528E+00   -0.79457E+00 13107   0.408E+00
RMM:  11    -0.487974476787E+03   -0.12855E+00   -0.20926E+00 12555   0.111E+00
RMM:  12    -0.488070635214E+03   -0.96158E-01   -0.10841E+00 12507   0.375E-01    0.105E+02
RMM:  13    -0.381447576956E+03    0.10662E+03   -0.11252E+03  9904   0.644E+01    0.118E+02
RMM:  14    -0.375575571385E+03    0.58720E+01   -0.50367E+01 10738   0.145E+01    0.674E+01
RMM:  15    -0.373074483013E+03    0.25011E+01   -0.33213E+01 10586   0.105E+01    0.448E+01
RMM:  16    -0.372023911825E+03    0.10506E+01   -0.17053E+01 10302   0.751E+00    0.220E+01
RMM:  17    -0.372320850846E+03   -0.29694E+00   -0.27399E+00 11451   0.313E+00    0.733E+00
RMM:  18    -0.372874947819E+03   -0.55410E+00   -0.10494E+00 10225   0.193E+00    0.331E+00
RMM:  19    -0.373225710497E+03   -0.35076E+00   -0.28792E-01 11108   0.942E-01    0.246E+00
RMM:  20    -0.373495538951E+03   -0.26983E+00   -0.94132E-02 10507   0.436E-01    0.135E+00
RMM:  21    -0.373870874755E+03   -0.37534E+00   -0.13438E-01  9594   0.458E-01    0.835E-01
RMM:  22    -0.374106860983E+03   -0.23599E+00   -0.10073E-01  9926   0.322E-01    0.642E-01
RMM:  23    -0.374275641376E+03   -0.16878E+00   -0.79850E-02  9880   0.243E-01    0.530E-01
RMM:  24    -0.374383031866E+03   -0.10739E+00   -0.53579E-02  9704   0.199E-01    0.418E-01
RMM:  25    -0.374496763857E+03   -0.11373E+00   -0.69926E-02  9405   0.209E-01    0.332E-01
RMM:  26    -0.374556409886E+03   -0.59646E-01   -0.43527E-02 10077   0.155E-01    0.261E-01
RMM:  27    -0.374586451077E+03   -0.30041E-01   -0.22076E-02 10261   0.116E-01    0.200E-01
RMM:  28    -0.374601641089E+03   -0.15190E-01   -0.11155E-02  9791   0.953E-02    0.163E-01
RMM:  29    -0.374607728253E+03   -0.60872E-02   -0.45923E-03 10283   0.642E-02    0.136E-01
RMM:  30    -0.374611026752E+03   -0.32985E-02   -0.32949E-03  9412   0.579E-02    0.121E-01
RMM:  31    -0.374612657140E+03   -0.16304E-02   -0.16578E-03  9694   0.416E-02    0.108E-01
RMM:  32    -0.374615389252E+03   -0.27321E-02   -0.35541E-03  8937   0.683E-02    0.923E-02
RMM:  33    -0.374616951859E+03   -0.15626E-02   -0.35380E-03  9031   0.658E-02    0.761E-02
RMM:  34    -0.374617861742E+03   -0.90988E-03   -0.26694E-03  9341   0.580E-02    0.630E-02
RMM:  35    -0.374618427535E+03   -0.56579E-03   -0.17232E-03  9139   0.444E-02    0.493E-02
RMM:  36    -0.374618746367E+03   -0.31883E-03   -0.84328E-04  9049   0.306E-02    0.397E-02
RMM:  37    -0.374618976153E+03   -0.22979E-03   -0.89557E-04  8680   0.317E-02    0.334E-02
RMM:  38    -0.374619136890E+03   -0.16074E-03   -0.74130E-04  8412   0.271E-02    0.290E-02
RMM:  39    -0.374619504241E+03   -0.36735E-03   -0.36530E-04  8338   0.196E-02    0.254E-02
RMM:  40    -0.374619818745E+03   -0.31450E-03   -0.21494E-04  8204   0.150E-02    0.223E-02
RMM:  41    -0.374619991500E+03   -0.17276E-03   -0.13402E-04  7649   0.119E-02    0.206E-02
RMM:  42    -0.374620074992E+03   -0.83492E-04   -0.10891E-04  7394   0.111E-02    0.195E-02
RMM:  43    -0.374620106584E+03   -0.31592E-04   -0.22211E-04  7724   0.172E-02    0.187E-02
RMM:  44    -0.374620120235E+03   -0.13651E-04   -0.13954E-04  7332   0.138E-02    0.171E-02
RMM:  45    -0.374620048007E+03    0.72227E-04   -0.31132E-04  7804   0.226E-02    0.161E-02
RMM:  46    -0.374620104302E+03   -0.56295E-04   -0.30466E-04  7629   0.219E-02    0.154E-02
RMM:  47    -0.374620205422E+03   -0.10112E-03   -0.21009E-04  7682   0.183E-02    0.132E-02
RMM:  48    -0.374620300782E+03   -0.95360E-04   -0.10894E-04  6842   0.138E-02    0.127E-02
RMM:  49    -0.374620366427E+03   -0.65645E-04   -0.66073E-05  6375   0.103E-02    0.991E-03
RMM:  50    -0.374620442771E+03   -0.76344E-04   -0.20072E-04  7400   0.182E-02    0.112E-02
RMM:  51    -0.374620484345E+03   -0.41574E-04   -0.95355E-05  6998   0.118E-02    0.873E-03
RMM:  52    -0.374620478907E+03    0.54372E-05   -0.73399E-05  6973   0.102E-02
   1 F= -.37462048E+03 E0= -.37462938E+03  d E =0.266992E-01  mag=   -34.0009
