       N       E                     dE             d eps       ncg     rms          rms(c)
RMM:   1    -0.206390952325E+04   -0.20639E+04   -0.34881E+05  4320   0.146E+03
RMM:   2     0.892755890085E+03    0.29567E+04   -0.62620E+04  4320   0.389E+02
RMM:   3     0.413934750456E+03   -0.47882E+03   -0.14797E+04  4320   0.223E+02
RMM:   4    -0.201861827610E+03   -0.61580E+03   -0.56417E+03  4320   0.140E+02
RMM:   5    -0.411878093688E+03   -0.21002E+03   -0.17949E+03  4320   0.781E+01
RMM:   6    -0.467994438833E+03   -0.56116E+02   -0.49796E+02  4320   0.445E+01
RMM:   7    -0.481412811149E+03   -0.13418E+02   -0.13191E+02  4320   0.227E+01
RMM:   8    -0.485685131498E+03   -0.42723E+01   -0.40920E+01  4320   0.132E+01
RMM:   9    -0.487782794249E+03   -0.20977E+01   -0.21241E+01 13379   0.715E+00
RMM:  10    -0.487705014439E+03    0.77780E-01   -0.21592E+00 14514   0.252E+00
RMM:  11    -0.487706649263E+03   -0.16348E-02   -0.26307E-01 13874   0.560E-01
RMM:  12    -0.487705990378E+03    0.65889E-03   -0.26157E-02 13994   0.140E-01    0.106E+02
RMM:  13    -0.384644973235E+03    0.10306E+03   -0.94667E+02 10896   0.555E+01    0.123E+02
RMM:  14    -0.376373044359E+03    0.82719E+01   -0.47924E+01 11894   0.135E+01    0.699E+01
RMM:  15    -0.386098935211E+03   -0.97259E+01   -0.77343E+01 10731   0.131E+01    0.804E+01
RMM:  16    -0.373748083974E+03    0.12351E+02   -0.35569E+01 11478   0.737E+00    0.414E+01
RMM:  17    -0.370993322262E+03    0.27548E+01   -0.10439E+01 11030   0.568E+00    0.205E+01
RMM:  18    -0.371097739153E+03   -0.10442E+00   -0.16440E+00 11301   0.232E+00    0.872E+00
RMM:  19    -0.372192963639E+03   -0.10952E+01   -0.10971E+00 10926   0.168E+00    0.686E+00
RMM:  20    -0.372452297763E+03   -0.25933E+00   -0.27196E-01 11171   0.830E-01    0.524E+00
RMM:  21    -0.372693553147E+03   -0.24126E+00   -0.28310E-01  9958   0.730E-01    0.386E+00
RMM:  22    -0.372933452687E+03   -0.23990E+00   -0.18826E-01 10252   0.632E-01    0.287E+00
RMM:  23    -0.373088779762E+03   -0.15533E+00   -0.15314E-01 10537   0.539E-01    0.237E+00
RMM:  24    -0.373151584010E+03   -0.62804E-01   -0.44196E-02 11396   0.352E-01    0.180E+00
RMM:  25    -0.373183334437E+03   -0.31750E-01   -0.28500E-02 10650   0.259E-01    0.123E+00
RMM:  26    -0.373223500777E+03   -0.40166E-01   -0.14766E-02 10593   0.162E-01    0.860E-01
RMM:  27    -0.373264865110E+03   -0.41364E-01   -0.20160E-02  9967   0.166E-01    0.579E-01
RMM:  28    -0.373296503496E+03   -0.31638E-01   -0.12296E-02 10095   0.128E-01    0.456E-01
RMM:  29    -0.373328172733E+03   -0.31669E-01   -0.81492E-03  9995   0.954E-02    0.378E-01
RMM:  30    -0.373374057702E+03   -0.45885E-01   -0.13310E-02  9632   0.108E-01    0.317E-01
RMM:  31    -0.373417887642E+03   -0.43830E-01   -0.16822E-02  9526   0.117E-01    0.269E-01
RMM:  32    -0.373448337941E+03   -0.30450E-01   -0.15524E-02  9989   0.109E-01    0.220E-01
RMM:  33    -0.373461256268E+03   -0.12918E-01   -0.82503E-03 10311   0.906E-02    0.175E-01
RMM:  34    -0.373465456554E+03   -0.42003E-02   -0.30905E-03 10771   0.616E-02    0.150E-01
RMM:  35    -0.373466473966E+03   -0.10174E-02   -0.24650E-03  9744   0.568E-02    0.132E-01
RMM:  36    -0.373466221439E+03    0.25253E-03   -0.22790E-03  9692   0.585E-02    0.116E-01
RMM:  37    -0.373467481694E+03   -0.12603E-02   -0.19343E-03  9839   0.526E-02    0.938E-02
RMM:  38    -0.373469946017E+03   -0.24643E-02   -0.19959E-03  9098   0.528E-02    0.738E-02
RMM:  39    -0.373472266141E+03   -0.23201E-02   -0.25893E-03  8876   0.634E-02    0.626E-02
RMM:  40    -0.373473787866E+03   -0.15217E-02   -0.10682E-03  9536   0.407E-02    0.438E-02
RMM:  41    -0.373474551204E+03   -0.76334E-03   -0.36679E-04  9002   0.261E-02    0.285E-02
RMM:  42    -0.373474831720E+03   -0.28052E-03   -0.21676E-04  8416   0.175E-02    0.183E-02
RMM:  43    -0.373474939666E+03   -0.10795E-03   -0.54033E-05  7802   0.110E-02    0.113E-02
RMM:  44    -0.373474996554E+03   -0.56888E-04   -0.21523E-05  6274   0.660E-03    0.828E-03
RMM:  45    -0.373475059979E+03   -0.63425E-04   -0.85920E-06  6135   0.417E-03    0.668E-03
RMM:  46    -0.373475143297E+03   -0.83318E-04   -0.73020E-06  5641   0.333E-03    0.595E-03
RMM:  47    -0.373475219491E+03   -0.76194E-04   -0.67450E-06  5676   0.298E-03    0.505E-03
RMM:  48    -0.373475250542E+03   -0.31050E-04   -0.96555E-06  6178   0.340E-03    0.501E-03
RMM:  49    -0.373475249431E+03    0.11104E-05   -0.31038E-06  5900   0.261E-03
   1 F= -.37347525E+03 E0= -.37348423E+03  d E =0.269469E-01  mag=    25.9692
