       N       E                     dE             d eps       ncg     rms          rms(c)
RMM:   1    -0.160554581284E+04   -0.16055E+04   -0.35926E+05  3888   0.165E+03
RMM:   2     0.810087207538E+03    0.24156E+04   -0.68492E+04  3888   0.457E+02
RMM:   3     0.571668458372E+03   -0.23842E+03   -0.16383E+04  3888   0.258E+02
RMM:   4    -0.607095277885E+02   -0.63238E+03   -0.64062E+03  3888   0.164E+02
RMM:   5    -0.338891535001E+03   -0.27818E+03   -0.25129E+03  3888   0.975E+01
RMM:   6    -0.438672016507E+03   -0.99780E+02   -0.91190E+02  3888   0.603E+01
RMM:   7    -0.468962038006E+03   -0.30290E+02   -0.30384E+02  3888   0.338E+01
RMM:   8    -0.480398768568E+03   -0.11437E+02   -0.11132E+02  3888   0.209E+01
RMM:   9    -0.487898361967E+03   -0.74996E+01   -0.75814E+01 12195   0.121E+01
RMM:  10    -0.487515697668E+03    0.38266E+00   -0.75394E+00 13068   0.388E+00
RMM:  11    -0.487678496350E+03   -0.16280E+00   -0.21957E+00 12555   0.109E+00
RMM:  12    -0.487798715425E+03   -0.12022E+00   -0.12704E+00 12544   0.371E-01    0.105E+02
RMM:  13    -0.381542546036E+03    0.10626E+03   -0.11346E+03  9938   0.648E+01    0.120E+02
RMM:  14    -0.375985219541E+03    0.55573E+01   -0.49906E+01 10807   0.143E+01    0.687E+01
RMM:  15    -0.374386213043E+03    0.15990E+01   -0.44774E+01 10476   0.125E+01    0.547E+01
RMM:  16    -0.374485686630E+03   -0.99474E-01   -0.26528E+01 10564   0.821E+00    0.412E+01
RMM:  17    -0.376676782497E+03   -0.21911E+01   -0.32782E+01 10601   0.929E+00    0.265E+01
RMM:  18    -0.372794797758E+03    0.38820E+01   -0.70909E+00 11061   0.438E+00    0.142E+01
RMM:  19    -0.373604990296E+03   -0.81019E+00   -0.18065E+00 10446   0.231E+00    0.721E+00
RMM:  20    -0.373800466663E+03   -0.19548E+00   -0.61487E-01 10894   0.130E+00    0.466E+00
RMM:  21    -0.373910879384E+03   -0.11041E+00   -0.38343E-01 10635   0.102E+00    0.266E+00
RMM:  22    -0.373982561733E+03   -0.71682E-01   -0.13235E-01 11433   0.556E-01    0.201E+00
RMM:  23    -0.373997454049E+03   -0.14892E-01   -0.66325E-02 10644   0.460E-01    0.149E+00
RMM:  24    -0.374005570541E+03   -0.81165E-02   -0.29231E-02 10956   0.278E-01    0.100E+00
RMM:  25    -0.374029874465E+03   -0.24304E-01   -0.20641E-02 10628   0.249E-01    0.108E+00
RMM:  26    -0.374028462490E+03    0.14120E-02   -0.16762E-02 10451   0.230E-01    0.824E-01
RMM:  27    -0.374017456880E+03    0.11006E-01   -0.82760E-03 10865   0.142E-01    0.124E+00
RMM:  28    -0.374032166481E+03   -0.14710E-01   -0.82408E-03 10194   0.156E-01    0.794E-01
RMM:  29    -0.374036501766E+03   -0.43353E-02   -0.76204E-03 10292   0.143E-01    0.671E-01
RMM:  30    -0.374039757502E+03   -0.32557E-02   -0.57129E-03 10145   0.112E-01    0.533E-01
RMM:  31    -0.374044765149E+03   -0.50076E-02   -0.50658E-03 10171   0.930E-02    0.487E-01
RMM:  32    -0.374049303023E+03   -0.45379E-02   -0.53998E-03  9760   0.958E-02    0.417E-01
RMM:  33    -0.374052822335E+03   -0.35193E-02   -0.39173E-03  9795   0.783E-02    0.346E-01
RMM:  34    -0.374056997579E+03   -0.41752E-02   -0.49738E-03  9386   0.884E-02    0.277E-01
RMM:  35    -0.374062311411E+03   -0.53138E-02   -0.95173E-03  9352   0.126E-01    0.213E-01
RMM:  36    -0.374065623320E+03   -0.33119E-02   -0.36869E-03  9982   0.720E-02    0.199E-01
RMM:  37    -0.374067173831E+03   -0.15505E-02   -0.12276E-03  9596   0.420E-02    0.197E-01
RMM:  38    -0.374066679756E+03    0.49407E-03   -0.16037E-04  8469   0.270E-02    0.196E-01
RMM:  39    -0.374066688482E+03   -0.87261E-05   -0.28103E-05  6048   0.576E-03
   1 F= -.37406669E+03 E0= -.37407611E+03  d E =0.282613E-01  mag=     0.0909
