       N       E                     dE             d eps       ncg     rms          rms(c)
RMM:   1    -0.161076481197E+04   -0.16108E+04   -0.35935E+05  3888   0.165E+03
RMM:   2     0.811133950864E+03    0.24219E+04   -0.68568E+04  3888   0.457E+02
RMM:   3     0.570941736205E+03   -0.24019E+03   -0.16384E+04  3888   0.258E+02
RMM:   4    -0.587267562707E+02   -0.62967E+03   -0.64001E+03  3888   0.164E+02
RMM:   5    -0.336898463669E+03   -0.27817E+03   -0.25094E+03  3888   0.975E+01
RMM:   6    -0.437179909220E+03   -0.10028E+03   -0.91512E+02  3888   0.603E+01
RMM:   7    -0.467962388526E+03   -0.30782E+02   -0.30809E+02  3888   0.338E+01
RMM:   8    -0.479704470331E+03   -0.11742E+02   -0.11384E+02  3888   0.209E+01
RMM:   9    -0.487465791954E+03   -0.77613E+01   -0.78422E+01 12177   0.122E+01
RMM:  10    -0.487076901487E+03    0.38889E+00   -0.78903E+00 13107   0.390E+00
RMM:  11    -0.487249830972E+03   -0.17293E+00   -0.23293E+00 12559   0.110E+00
RMM:  12    -0.487377828365E+03   -0.12800E+00   -0.13619E+00 12527   0.381E-01    0.105E+02
RMM:  13    -0.381590023253E+03    0.10579E+03   -0.11455E+03  9973   0.653E+01    0.123E+02
RMM:  14    -0.376089563476E+03    0.55005E+01   -0.57922E+01 10878   0.149E+01    0.726E+01
RMM:  15    -0.387590222209E+03   -0.11501E+02   -0.11695E+02 10964   0.178E+01    0.857E+01
RMM:  16    -0.372653858723E+03    0.14936E+02   -0.45564E+01 10296   0.101E+01    0.408E+01
RMM:  17    -0.372078971656E+03    0.57489E+00   -0.10159E+01 10636   0.617E+00    0.174E+01
RMM:  18    -0.372123427348E+03   -0.44456E-01   -0.22578E+00 10885   0.284E+00    0.958E+00
RMM:  19    -0.372367108217E+03   -0.24368E+00   -0.21994E+00 10575   0.237E+00    0.731E+00
RMM:  20    -0.372678208143E+03   -0.31110E+00   -0.50004E-01 11411   0.117E+00    0.839E+00
RMM:  21    -0.372729413071E+03   -0.51205E-01   -0.49457E-01 10616   0.112E+00    0.680E+00
RMM:  22    -0.372706437866E+03    0.22975E-01   -0.41308E-01 10452   0.106E+00    0.544E+00
RMM:  23    -0.372799640892E+03   -0.93203E-01   -0.15498E-01 11041   0.590E-01    0.450E+00
RMM:  24    -0.372929459555E+03   -0.12982E+00   -0.45124E-01  9950   0.103E+00    0.327E+00
RMM:  25    -0.373022682900E+03   -0.93223E-01   -0.39257E-01 10003   0.938E-01    0.260E+00
RMM:  26    -0.373046440471E+03   -0.23758E-01   -0.89318E-02 10933   0.492E-01    0.205E+00
RMM:  27    -0.373063594564E+03   -0.17154E-01   -0.30425E-02 10435   0.302E-01    0.221E+00
RMM:  28    -0.373072649515E+03   -0.90550E-02   -0.46450E-02  9947   0.331E-01    0.123E+00
RMM:  29    -0.373081215277E+03   -0.85658E-02   -0.10864E-02 10846   0.179E-01    0.128E+00
RMM:  30    -0.373090223781E+03   -0.90085E-02   -0.12442E-02  9972   0.167E-01    0.970E-01
RMM:  31    -0.373095198946E+03   -0.49752E-02   -0.49186E-03 10160   0.961E-02    0.776E-01
RMM:  32    -0.373107490127E+03   -0.12291E-01   -0.12246E-02  9920   0.154E-01    0.418E-01
RMM:  33    -0.373117309763E+03   -0.98196E-02   -0.10437E-02 10500   0.136E-01    0.322E-01
RMM:  34    -0.373123832618E+03   -0.65229E-02   -0.64728E-03 10645   0.103E-01    0.278E-01
RMM:  35    -0.373126525194E+03   -0.26926E-02   -0.24410E-03 10416   0.720E-02    0.224E-01
RMM:  36    -0.373129964620E+03   -0.34394E-02   -0.34267E-03  9547   0.769E-02    0.193E-01
RMM:  37    -0.373132824021E+03   -0.28594E-02   -0.38474E-03  9360   0.811E-02    0.173E-01
RMM:  38    -0.373134406127E+03   -0.15821E-02   -0.16381E-03 10236   0.515E-02    0.150E-01
RMM:  39    -0.373136035978E+03   -0.16299E-02   -0.28161E-03  9087   0.659E-02    0.138E-01
RMM:  40    -0.373136134161E+03   -0.98183E-04   -0.39544E-03  9138   0.750E-02    0.122E-01
RMM:  41    -0.373137188431E+03   -0.10543E-02   -0.30328E-03  9288   0.684E-02    0.101E-01
RMM:  42    -0.373138048200E+03   -0.85977E-03   -0.26351E-03  9223   0.622E-02    0.806E-02
RMM:  43    -0.373139192329E+03   -0.11441E-02   -0.21748E-03  9121   0.576E-02    0.654E-02
RMM:  44    -0.373139963354E+03   -0.77103E-03   -0.89650E-04  9269   0.373E-02    0.484E-02
RMM:  45    -0.373140362491E+03   -0.39914E-03   -0.56710E-04  8703   0.294E-02    0.380E-02
RMM:  46    -0.373140804784E+03   -0.44229E-03   -0.87431E-04  8168   0.352E-02    0.326E-02
RMM:  47    -0.373141049666E+03   -0.24488E-03   -0.56935E-04  8731   0.276E-02    0.235E-02
RMM:  48    -0.373141247507E+03   -0.19784E-03   -0.21861E-04  8435   0.179E-02    0.243E-02
RMM:  49    -0.373141343560E+03   -0.96054E-04   -0.10787E-04  7756   0.118E-02    0.139E-02
RMM:  50    -0.373141425090E+03   -0.81530E-04   -0.89907E-05  7004   0.945E-03    0.116E-02
RMM:  51    -0.373141485430E+03   -0.60340E-04   -0.49148E-05  6807   0.702E-03    0.873E-03
RMM:  52    -0.373141504665E+03   -0.19235E-04   -0.37184E-05  6345   0.637E-03    0.950E-03
RMM:  53    -0.373141509616E+03   -0.49508E-05   -0.16303E-05  5596   0.508E-03
   1 F= -.37314151E+03 E0= -.37315020E+03  d E =0.260836E-01  mag=     8.0475
