       N       E                     dE             d eps       ncg     rms          rms(c)
RMM:   1    -0.206171981891E+04   -0.20617E+04   -0.34879E+05  4320   0.146E+03
RMM:   2     0.892798628426E+03    0.29545E+04   -0.62720E+04  4320   0.388E+02
RMM:   3     0.414190578860E+03   -0.47861E+03   -0.14797E+04  4320   0.223E+02
RMM:   4    -0.201847476524E+03   -0.61604E+03   -0.56454E+03  4320   0.140E+02
RMM:   5    -0.411963204247E+03   -0.21012E+03   -0.17951E+03  4320   0.781E+01
RMM:   6    -0.468095731097E+03   -0.56133E+02   -0.49820E+02  4320   0.445E+01
RMM:   7    -0.481488974679E+03   -0.13393E+02   -0.13173E+02  4320   0.227E+01
RMM:   8    -0.485760557722E+03   -0.42716E+01   -0.40893E+01  4320   0.132E+01
RMM:   9    -0.487848144325E+03   -0.20876E+01   -0.21135E+01 13371   0.716E+00
RMM:  10    -0.487770262672E+03    0.77882E-01   -0.21494E+00 14502   0.253E+00
RMM:  11    -0.487770914732E+03   -0.65206E-03   -0.25697E-01 13859   0.562E-01
RMM:  12    -0.487770266200E+03    0.64853E-03   -0.24618E-02 14032   0.141E-01    0.106E+02
RMM:  13    -0.384552983130E+03    0.10322E+03   -0.94649E+02 10888   0.555E+01    0.124E+02
RMM:  14    -0.377053247380E+03    0.74997E+01   -0.47803E+01 12031   0.133E+01    0.713E+01
RMM:  15    -0.388155196718E+03   -0.11102E+02   -0.92604E+01 10704   0.144E+01    0.843E+01
RMM:  16    -0.372247211254E+03    0.15908E+02   -0.39896E+01 11333   0.841E+00    0.406E+01
RMM:  17    -0.370045971396E+03    0.22012E+01   -0.14645E+01 10929   0.627E+00    0.224E+01
RMM:  18    -0.371071205888E+03   -0.10252E+01   -0.36491E+00 11655   0.320E+00    0.115E+01
RMM:  19    -0.371823431594E+03   -0.75223E+00   -0.14274E+00 10877   0.181E+00    0.720E+00
RMM:  20    -0.372276952356E+03   -0.45352E+00   -0.34412E-01 10996   0.959E-01    0.532E+00
RMM:  21    -0.372691006643E+03   -0.41405E+00   -0.23241E-01 10631   0.717E-01    0.409E+00
RMM:  22    -0.373013302035E+03   -0.32230E+00   -0.20578E-01 10381   0.692E-01    0.348E+00
RMM:  23    -0.373156239203E+03   -0.14294E+00   -0.13022E-01 10838   0.575E-01    0.228E+00
RMM:  24    -0.373229504086E+03   -0.73265E-01   -0.38717E-02 11558   0.280E-01    0.176E+00
RMM:  25    -0.373295740113E+03   -0.66236E-01   -0.29128E-02 10106   0.252E-01    0.143E+00
RMM:  26    -0.373335234284E+03   -0.39494E-01   -0.20486E-02 10691   0.200E-01    0.907E-01
RMM:  27    -0.373395784303E+03   -0.60550E-01   -0.28379E-02  9850   0.200E-01    0.613E-01
RMM:  28    -0.373452373326E+03   -0.56589E-01   -0.27552E-02  9997   0.186E-01    0.453E-01
RMM:  29    -0.373494865735E+03   -0.42492E-01   -0.23002E-02 10346   0.158E-01    0.388E-01
RMM:  30    -0.373512374798E+03   -0.17509E-01   -0.96577E-03 10873   0.110E-01    0.302E-01
RMM:  31    -0.373519839933E+03   -0.74651E-02   -0.41041E-03 10727   0.781E-02    0.248E-01
RMM:  32    -0.373525868988E+03   -0.60291E-02   -0.36020E-03  9916   0.730E-02    0.214E-01
RMM:  33    -0.373530254955E+03   -0.43860E-02   -0.31361E-03 10034   0.687E-02    0.188E-01
RMM:  34    -0.373533154997E+03   -0.29000E-02   -0.40598E-03  9486   0.771E-02    0.167E-01
RMM:  35    -0.373534844855E+03   -0.16899E-02   -0.20916E-03 10079   0.606E-02    0.155E-01
RMM:  36    -0.373537194158E+03   -0.23493E-02   -0.35429E-03  9486   0.746E-02    0.132E-01
RMM:  37    -0.373539628075E+03   -0.24339E-02   -0.50663E-03  9279   0.934E-02    0.105E-01
RMM:  38    -0.373541760865E+03   -0.21328E-02   -0.42434E-03  9423   0.778E-02    0.871E-02
RMM:  39    -0.373543202912E+03   -0.14420E-02   -0.93517E-04  9739   0.491E-02    0.628E-02
RMM:  40    -0.373543734891E+03   -0.53198E-03   -0.81139E-04  9257   0.349E-02    0.483E-02
RMM:  41    -0.373544061755E+03   -0.32686E-03   -0.41676E-04  8945   0.259E-02    0.401E-02
RMM:  42    -0.373544290064E+03   -0.22831E-03   -0.28030E-04  8862   0.221E-02    0.311E-02
RMM:  43    -0.373544441122E+03   -0.15106E-03   -0.12686E-04  8237   0.146E-02    0.211E-02
RMM:  44    -0.373544553843E+03   -0.11272E-03   -0.90727E-05  7487   0.117E-02    0.170E-02
RMM:  45    -0.373544651957E+03   -0.98113E-04   -0.39358E-05  6898   0.887E-03    0.137E-02
RMM:  46    -0.373544737049E+03   -0.85092E-04   -0.29160E-05  6978   0.692E-03    0.124E-02
RMM:  47    -0.373544773132E+03   -0.36083E-04   -0.20067E-05  6755   0.574E-03    0.109E-02
RMM:  48    -0.373544773805E+03   -0.67352E-06   -0.17747E-05  6837   0.592E-03
   1 F= -.37354477E+03 E0= -.37355327E+03  d E =0.254963E-01  mag=    24.0034
