       N       E                     dE             d eps       ncg     rms          rms(c)
RMM:   1    -0.206415151380E+04   -0.20642E+04   -0.34884E+05  4320   0.146E+03
RMM:   2     0.894101747895E+03    0.29583E+04   -0.62529E+04  4320   0.389E+02
RMM:   3     0.415347276639E+03   -0.47875E+03   -0.14817E+04  4320   0.223E+02
RMM:   4    -0.201291685468E+03   -0.61664E+03   -0.56461E+03  4320   0.140E+02
RMM:   5    -0.411880258426E+03   -0.21059E+03   -0.17977E+03  4320   0.781E+01
RMM:   6    -0.468217024747E+03   -0.56337E+02   -0.49918E+02  4320   0.446E+01
RMM:   7    -0.481667510460E+03   -0.13450E+02   -0.13232E+02  4320   0.227E+01
RMM:   8    -0.485934496504E+03   -0.42670E+01   -0.40917E+01  4320   0.132E+01
RMM:   9    -0.488036530763E+03   -0.21020E+01   -0.21236E+01 13388   0.717E+00
RMM:  10    -0.487946131568E+03    0.90399E-01   -0.21033E+00 14496   0.253E+00
RMM:  11    -0.487945440682E+03    0.69089E-03   -0.23649E-01 13859   0.551E-01
RMM:  12    -0.487944600427E+03    0.84026E-03   -0.20635E-02 14096   0.139E-01    0.106E+02
RMM:  13    -0.382847109645E+03    0.10510E+03   -0.93669E+02 10898   0.552E+01    0.123E+02
RMM:  14    -0.375089627635E+03    0.77575E+01   -0.46504E+01 11641   0.131E+01    0.701E+01
RMM:  15    -0.385812568523E+03   -0.10723E+02   -0.56069E+01 11152   0.123E+01    0.848E+01
RMM:  16    -0.379962787800E+03    0.58498E+01   -0.66010E+01 10930   0.112E+01    0.582E+01
RMM:  17    -0.387100975573E+03   -0.71382E+01   -0.20423E+01 11066   0.734E+00    0.657E+01
RMM:  18    -0.372321142169E+03    0.14780E+02   -0.59553E+01 11043   0.100E+01    0.312E+01
RMM:  19    -0.366384899155E+03    0.59362E+01   -0.55233E+00 11824   0.399E+00    0.180E+01
RMM:  20    -0.366716185581E+03   -0.33129E+00   -0.16343E+00 10906   0.198E+00    0.134E+01
RMM:  21    -0.367178319696E+03   -0.46213E+00   -0.25856E-01 11868   0.827E-01    0.132E+01
RMM:  22    -0.368201203559E+03   -0.10229E+01   -0.48677E-01 10443   0.107E+00    0.129E+01
RMM:  23    -0.368833403437E+03   -0.63220E+00   -0.38648E-01 10376   0.994E-01    0.110E+01
RMM:  24    -0.369682232846E+03   -0.84883E+00   -0.52350E-01 10316   0.107E+00    0.872E+00
RMM:  25    -0.370362639295E+03   -0.68041E+00   -0.74618E-01  9735   0.121E+00    0.516E+00
RMM:  26    -0.370704213271E+03   -0.34157E+00   -0.68980E-01  9870   0.124E+00    0.411E+00
RMM:  27    -0.371066476270E+03   -0.36226E+00   -0.17796E-01 11159   0.810E-01    0.241E+00
RMM:  28    -0.371293193111E+03   -0.22672E+00   -0.10175E-01 10344   0.448E-01    0.219E+00
RMM:  29    -0.371370986728E+03   -0.77794E-01   -0.49339E-02 10953   0.357E-01    0.175E+00
RMM:  30    -0.371507480603E+03   -0.13649E+00   -0.46034E-02 10214   0.275E-01    0.130E+00
RMM:  31    -0.371654279752E+03   -0.14680E+00   -0.47212E-02  9585   0.258E-01    0.996E-01
RMM:  32    -0.371830140565E+03   -0.17586E+00   -0.63830E-02  9558   0.287E-01    0.767E-01
RMM:  33    -0.371945507795E+03   -0.11537E+00   -0.33608E-02 10238   0.211E-01    0.559E-01
RMM:  34    -0.372008887945E+03   -0.63380E-01   -0.19393E-02 10790   0.169E-01    0.385E-01
RMM:  35    -0.372031021514E+03   -0.22134E-01   -0.92702E-03 10592   0.124E-01    0.275E-01
RMM:  36    -0.372037982224E+03   -0.69607E-02   -0.43303E-03 10731   0.912E-02    0.207E-01
RMM:  37    -0.372042235808E+03   -0.42536E-02   -0.24511E-03 10576   0.663E-02    0.164E-01
RMM:  38    -0.372045546220E+03   -0.33104E-02   -0.21219E-03  9725   0.606E-02    0.141E-01
RMM:  39    -0.372048323638E+03   -0.27774E-02   -0.14757E-03  9686   0.524E-02    0.130E-01
RMM:  40    -0.372050868762E+03   -0.25451E-02   -0.17918E-03  9360   0.568E-02    0.124E-01
RMM:  41    -0.372053201330E+03   -0.23326E-02   -0.23380E-03  9042   0.646E-02    0.121E-01
RMM:  42    -0.372055435024E+03   -0.22337E-02   -0.15211E-03  9868   0.515E-02    0.111E-01
RMM:  43    -0.372057360300E+03   -0.19253E-02   -0.18471E-03  9354   0.561E-02    0.102E-01
RMM:  44    -0.372059101413E+03   -0.17411E-02   -0.20106E-03  8955   0.590E-02    0.970E-02
RMM:  45    -0.372060778393E+03   -0.16770E-02   -0.14251E-03  9185   0.507E-02    0.860E-02
RMM:  46    -0.372061467147E+03   -0.68875E-03   -0.48024E-03  8959   0.949E-02    0.973E-02
RMM:  47    -0.372063905080E+03   -0.24379E-02   -0.94221E-04  9603   0.530E-02    0.745E-02
RMM:  48    -0.372064886165E+03   -0.98109E-03   -0.17319E-03  8960   0.517E-02    0.712E-02
RMM:  49    -0.372065684162E+03   -0.79800E-03   -0.85142E-04  9085   0.397E-02    0.513E-02
RMM:  50    -0.372065729055E+03   -0.44893E-04   -0.16169E-03  9373   0.541E-02    0.640E-02
RMM:  51    -0.372066710207E+03   -0.98115E-03   -0.23799E-04  9352   0.358E-02    0.306E-02
RMM:  52    -0.372066717087E+03   -0.68801E-05   -0.31378E-04  8577   0.244E-02    0.300E-02
RMM:  53    -0.372066919135E+03   -0.20205E-03   -0.50205E-05  7967   0.147E-02    0.138E-02
RMM:  54    -0.372066919711E+03   -0.57596E-06   -0.73734E-05  7637   0.112E-02
   1 F= -.37206692E+03 E0= -.37207322E+03  d E =0.188909E-01  mag=    19.9983
