       N       E                     dE             d eps       ncg     rms          rms(c)
RMM:   1    -0.160822718417E+04   -0.16082E+04   -0.35927E+05  3888   0.165E+03
RMM:   2     0.809826848448E+03    0.24181E+04   -0.68559E+04  3888   0.457E+02
RMM:   3     0.572266646983E+03   -0.23756E+03   -0.16354E+04  3888   0.258E+02
RMM:   4    -0.591326098574E+02   -0.63140E+03   -0.63945E+03  3888   0.164E+02
RMM:   5    -0.337829844151E+03   -0.27870E+03   -0.25118E+03  3888   0.975E+01
RMM:   6    -0.437578118963E+03   -0.99748E+02   -0.91174E+02  3888   0.603E+01
RMM:   7    -0.468151200753E+03   -0.30573E+02   -0.30654E+02  3888   0.338E+01
RMM:   8    -0.479832757564E+03   -0.11682E+02   -0.11340E+02  3888   0.209E+01
RMM:   9    -0.487555975311E+03   -0.77232E+01   -0.77975E+01 12177   0.122E+01
RMM:  10    -0.487184497725E+03    0.37148E+00   -0.78529E+00 13087   0.392E+00
RMM:  11    -0.487366125630E+03   -0.18163E+00   -0.23460E+00 12584   0.111E+00
RMM:  12    -0.487499681720E+03   -0.13356E+00   -0.14044E+00 12487   0.381E-01    0.105E+02
RMM:  13    -0.382098594551E+03    0.10540E+03   -0.11378E+03  9962   0.653E+01    0.120E+02
RMM:  14    -0.375814785460E+03    0.62838E+01   -0.50864E+01 10844   0.146E+01    0.682E+01
RMM:  15    -0.373992985837E+03    0.18218E+01   -0.41975E+01 10716   0.113E+01    0.500E+01
RMM:  16    -0.372610285782E+03    0.13827E+01   -0.27228E+01 10613   0.909E+00    0.316E+01
RMM:  17    -0.373296523717E+03   -0.68624E+00   -0.73213E+00 10870   0.491E+00    0.154E+01
RMM:  18    -0.373381420805E+03   -0.84897E-01   -0.28837E+00 10899   0.297E+00    0.663E+00
RMM:  19    -0.373392870275E+03   -0.11449E-01   -0.90516E-01 10971   0.160E+00    0.365E+00
RMM:  20    -0.373514207222E+03   -0.12134E+00   -0.33334E-01 11154   0.914E-01    0.255E+00
RMM:  21    -0.373650160630E+03   -0.13595E+00   -0.12308E-01 10831   0.584E-01    0.152E+00
RMM:  22    -0.373766000638E+03   -0.11584E+00   -0.88317E-02 10765   0.450E-01    0.106E+00
RMM:  23    -0.373836123015E+03   -0.70122E-01   -0.31684E-02 10988   0.256E-01    0.721E-01
RMM:  24    -0.373880603560E+03   -0.44481E-01   -0.15784E-02 10260   0.169E-01    0.485E-01
RMM:  25    -0.373922558098E+03   -0.41955E-01   -0.12550E-02 10094   0.131E-01    0.417E-01
RMM:  26    -0.373967229763E+03   -0.44672E-01   -0.20311E-02  9331   0.156E-01    0.362E-01
RMM:  27    -0.373997831434E+03   -0.30602E-01   -0.21096E-02  9709   0.134E-01    0.317E-01
RMM:  28    -0.374017732315E+03   -0.19901E-01   -0.18064E-02  9676   0.119E-01    0.282E-01
RMM:  29    -0.374030542202E+03   -0.12810E-01   -0.15668E-02  9481   0.120E-01    0.246E-01
RMM:  30    -0.374036517134E+03   -0.59749E-02   -0.25684E-02  9441   0.169E-01    0.214E-01
RMM:  31    -0.374039265046E+03   -0.27479E-02   -0.15094E-02  9770   0.120E-01    0.174E-01
RMM:  32    -0.374043831052E+03   -0.45660E-02   -0.10060E-02  9682   0.947E-02    0.150E-01
RMM:  33    -0.374048198188E+03   -0.43671E-02   -0.10901E-02  9310   0.943E-02    0.124E-01
RMM:  34    -0.374053681160E+03   -0.54830E-02   -0.14252E-02  9198   0.108E-01    0.995E-02
RMM:  35    -0.374056862420E+03   -0.31813E-02   -0.87770E-03  9667   0.796E-02    0.730E-02
RMM:  36    -0.374058587606E+03   -0.17252E-02   -0.38353E-03  9592   0.520E-02    0.555E-02
RMM:  37    -0.374059121239E+03   -0.53363E-03   -0.41365E-03  9150   0.513E-02    0.480E-02
RMM:  38    -0.374059653911E+03   -0.53267E-03   -0.14062E-03  9078   0.327E-02    0.318E-02
RMM:  39    -0.374059800643E+03   -0.14673E-03   -0.13903E-03  8656   0.281E-02    0.281E-02
RMM:  40    -0.374060001169E+03   -0.20053E-03   -0.41226E-04  8018   0.180E-02    0.204E-02
RMM:  41    -0.374060161378E+03   -0.16021E-03   -0.26558E-04  7367   0.124E-02    0.185E-02
RMM:  42    -0.374060313265E+03   -0.15189E-03   -0.22290E-04  7870   0.124E-02    0.167E-02
RMM:  43    -0.374060331242E+03   -0.17978E-04   -0.13628E-04  7416   0.102E-02    0.143E-02
RMM:  44    -0.374060347115E+03   -0.15873E-04   -0.12774E-04  7273   0.102E-02    0.125E-02
RMM:  45    -0.374060368514E+03   -0.21399E-04   -0.11278E-04  7289   0.108E-02    0.113E-02
RMM:  46    -0.374060411271E+03   -0.42757E-04   -0.72588E-05  6445   0.894E-03    0.991E-03
RMM:  47    -0.374060437748E+03   -0.26476E-04   -0.96206E-05  6911   0.106E-02    0.870E-03
RMM:  48    -0.374060448831E+03   -0.11083E-04   -0.60484E-05  6249   0.830E-03    0.702E-03
RMM:  49    -0.374060457217E+03   -0.83862E-05   -0.46096E-05  6158   0.724E-03
   1 F= -.37406046E+03 E0= -.37406929E+03  d E =0.265040E-01  mag=     0.0611
