       N       E                     dE             d eps       ncg     rms          rms(c)
RMM:   1    -0.160470021694E+04   -0.16047E+04   -0.35924E+05  3888   0.165E+03
RMM:   2     0.809549901402E+03    0.24143E+04   -0.68538E+04  3888   0.457E+02
RMM:   3     0.570955240965E+03   -0.23859E+03   -0.16375E+04  3888   0.258E+02
RMM:   4    -0.605893190065E+02   -0.63154E+03   -0.64031E+03  3888   0.164E+02
RMM:   5    -0.338938231618E+03   -0.27835E+03   -0.25125E+03  3888   0.975E+01
RMM:   6    -0.438576276523E+03   -0.99638E+02   -0.91091E+02  3888   0.602E+01
RMM:   7    -0.468740952928E+03   -0.30165E+02   -0.30257E+02  3888   0.337E+01
RMM:   8    -0.480164598261E+03   -0.11424E+02   -0.11092E+02  3888   0.208E+01
RMM:   9    -0.487647710937E+03   -0.74831E+01   -0.75552E+01 12175   0.121E+01
RMM:  10    -0.487296323173E+03    0.35139E+00   -0.76872E+00 13092   0.390E+00
RMM:  11    -0.487476370058E+03   -0.18005E+00   -0.23329E+00 12545   0.109E+00
RMM:  12    -0.487607089414E+03   -0.13072E+00   -0.13702E+00 12517   0.375E-01    0.105E+02
RMM:  13    -0.382174921179E+03    0.10543E+03   -0.11402E+03  9943   0.653E+01    0.120E+02
RMM:  14    -0.376304607461E+03    0.58703E+01   -0.55121E+01 10763   0.150E+01    0.694E+01
RMM:  15    -0.381556683355E+03   -0.52521E+01   -0.81503E+01 10890   0.149E+01    0.766E+01
RMM:  16    -0.375166141865E+03    0.63905E+01   -0.40199E+01 10720   0.833E+00    0.399E+01
RMM:  17    -0.373130331154E+03    0.20358E+01   -0.17295E+01 10600   0.749E+00    0.222E+01
RMM:  18    -0.373198096691E+03   -0.67766E-01   -0.27045E+00 11194   0.313E+00    0.130E+01
RMM:  19    -0.373542783023E+03   -0.34469E+00   -0.15374E+00 10632   0.223E+00    0.765E+00
RMM:  20    -0.373602786452E+03   -0.60003E-01   -0.54925E-01 10977   0.122E+00    0.432E+00
RMM:  21    -0.373825648124E+03   -0.22286E+00   -0.28356E-01 10924   0.806E-01    0.485E+00
RMM:  22    -0.373895643892E+03   -0.69996E-01   -0.10757E-01 11232   0.561E-01    0.428E+00
RMM:  23    -0.373891157926E+03    0.44860E-02   -0.86942E-02 10550   0.543E-01    0.376E+00
RMM:  24    -0.373919823223E+03   -0.28665E-01   -0.49161E-02 10916   0.348E-01    0.318E+00
RMM:  25    -0.374007293658E+03   -0.87470E-01   -0.18927E-01 10258   0.685E-01    0.225E+00
RMM:  26    -0.374068217962E+03   -0.60924E-01   -0.14302E-01 10334   0.581E-01    0.157E+00
RMM:  27    -0.374101151158E+03   -0.32933E-01   -0.68110E-02 11079   0.410E-01    0.120E+00
RMM:  28    -0.374117054892E+03   -0.15904E-01   -0.22951E-02 11015   0.232E-01    0.896E-01
RMM:  29    -0.374125732467E+03   -0.86776E-02   -0.15968E-02 10448   0.190E-01    0.907E-01
RMM:  30    -0.374129764260E+03   -0.40318E-02   -0.95289E-03 10749   0.135E-01    0.812E-01
RMM:  31    -0.374136709573E+03   -0.69453E-02   -0.10835E-02 10273   0.148E-01    0.627E-01
RMM:  32    -0.374142257436E+03   -0.55479E-02   -0.12054E-02 10184   0.156E-01    0.390E-01
RMM:  33    -0.374146799491E+03   -0.45421E-02   -0.92097E-03 10101   0.127E-01    0.262E-01
RMM:  34    -0.374149992504E+03   -0.31930E-02   -0.43814E-03 10458   0.849E-02    0.227E-01
RMM:  35    -0.374152538766E+03   -0.25463E-02   -0.32510E-03  9890   0.663E-02    0.202E-01
RMM:  36    -0.374156866444E+03   -0.43277E-02   -0.12807E-02  9277   0.141E-01    0.194E-01
RMM:  37    -0.374158683632E+03   -0.18172E-02   -0.37954E-03 10564   0.700E-02    0.192E-01
RMM:  38    -0.374159644114E+03   -0.96048E-03   -0.12265E-03  9393   0.391E-02    0.160E-01
RMM:  39    -0.374160762054E+03   -0.11179E-02   -0.22667E-03  9111   0.520E-02    0.131E-01
RMM:  40    -0.374161227386E+03   -0.46533E-03   -0.16222E-02  8486   0.154E-01    0.146E-01
RMM:  41    -0.374163410953E+03   -0.21836E-02   -0.63430E-03  9771   0.888E-02    0.953E-02
RMM:  42    -0.374164435218E+03   -0.10243E-02   -0.23246E-03  9566   0.585E-02    0.550E-02
RMM:  43    -0.374164862987E+03   -0.42777E-03   -0.76385E-04  9186   0.302E-02    0.416E-02
RMM:  44    -0.374165155493E+03   -0.29251E-03   -0.84144E-04  8362   0.307E-02    0.370E-02
RMM:  45    -0.374165393212E+03   -0.23772E-03   -0.80054E-04  8362   0.300E-02    0.278E-02
RMM:  46    -0.374165602529E+03   -0.20932E-03   -0.49546E-04  8699   0.235E-02    0.361E-02
RMM:  47    -0.374165827852E+03   -0.22532E-03   -0.22067E-04  8169   0.171E-02    0.211E-02
RMM:  48    -0.374165912727E+03   -0.84875E-04   -0.10239E-04  7467   0.102E-02    0.168E-02
RMM:  49    -0.374165962182E+03   -0.49455E-04   -0.57389E-05  6537   0.754E-03    0.130E-02
RMM:  50    -0.374166048845E+03   -0.86663E-04   -0.69050E-05  6913   0.797E-03    0.117E-02
RMM:  51    -0.374166073160E+03   -0.24315E-04   -0.85856E-05  6949   0.887E-03    0.998E-03
RMM:  52    -0.374166072891E+03    0.26924E-06   -0.47934E-05  6148   0.725E-03
   1 F= -.37416607E+03 E0= -.37417437E+03  d E =0.249007E-01  mag=     0.0212
