       N       E                     dE             d eps       ncg     rms          rms(c)
RMM:   1    -0.160509031517E+04   -0.16051E+04   -0.35929E+05  3888   0.165E+03
RMM:   2     0.810155997855E+03    0.24152E+04   -0.68583E+04  3888   0.457E+02
RMM:   3     0.570283255625E+03   -0.23987E+03   -0.16377E+04  3888   0.258E+02
RMM:   4    -0.602776387088E+02   -0.63056E+03   -0.64018E+03  3888   0.164E+02
RMM:   5    -0.338362493764E+03   -0.27808E+03   -0.25103E+03  3888   0.975E+01
RMM:   6    -0.438060624085E+03   -0.99698E+02   -0.91149E+02  3888   0.602E+01
RMM:   7    -0.468429867840E+03   -0.30369E+02   -0.30468E+02  3888   0.338E+01
RMM:   8    -0.479985708336E+03   -0.11556E+02   -0.11227E+02  3888   0.208E+01
RMM:   9    -0.487600145349E+03   -0.76144E+01   -0.76939E+01 12186   0.121E+01
RMM:  10    -0.487232174824E+03    0.36797E+00   -0.77543E+00 13069   0.390E+00
RMM:  11    -0.487414002161E+03   -0.18183E+00   -0.23493E+00 12573   0.110E+00
RMM:  12    -0.487546798467E+03   -0.13280E+00   -0.13998E+00 12537   0.379E-01    0.105E+02
RMM:  13    -0.382380349057E+03    0.10517E+03   -0.11474E+03  9943   0.654E+01    0.121E+02
RMM:  14    -0.376258593709E+03    0.61218E+01   -0.54544E+01 10793   0.149E+01    0.702E+01
RMM:  15    -0.383515694167E+03   -0.72571E+01   -0.93816E+01 10896   0.165E+01    0.808E+01
RMM:  16    -0.374530700157E+03    0.89850E+01   -0.41073E+01 10529   0.925E+00    0.403E+01
RMM:  17    -0.372991624487E+03    0.15391E+01   -0.19030E+01 10534   0.774E+00    0.231E+01
RMM:  18    -0.373100655084E+03   -0.10903E+00   -0.17307E+00 11474   0.253E+00    0.129E+01
RMM:  19    -0.373135452499E+03   -0.34797E-01   -0.28916E+00 10339   0.291E+00    0.749E+00
RMM:  20    -0.373141653278E+03   -0.62008E-02   -0.54724E-01 10987   0.131E+00    0.500E+00
RMM:  21    -0.373425953430E+03   -0.28430E+00   -0.33441E-01 10520   0.104E+00    0.732E+00
RMM:  22    -0.373423785759E+03    0.21677E-02   -0.69688E-02 11629   0.529E-01    0.676E+00
RMM:  23    -0.373422383716E+03    0.14020E-02   -0.50461E-02 10560   0.348E-01    0.609E+00
RMM:  24    -0.373579259122E+03   -0.15688E+00   -0.35884E-01 10191   0.885E-01    0.459E+00
RMM:  25    -0.373748255174E+03   -0.16900E+00   -0.49945E-01 10127   0.109E+00    0.285E+00
RMM:  26    -0.373817826757E+03   -0.69572E-01   -0.17721E-01 10611   0.678E-01    0.209E+00
RMM:  27    -0.373846512134E+03   -0.28685E-01   -0.10727E-01 10527   0.559E-01    0.164E+00
RMM:  28    -0.373855810103E+03   -0.92980E-02   -0.28477E-02 11433   0.263E-01    0.181E+00
RMM:  29    -0.373856358879E+03   -0.54878E-03   -0.23494E-02 10201   0.266E-01    0.146E+00
RMM:  30    -0.373854249078E+03    0.21098E-02   -0.87133E-03 11022   0.149E-01    0.100E+00
RMM:  31    -0.373857997312E+03   -0.37482E-02   -0.11716E-02 10230   0.176E-01    0.531E-01
RMM:  32    -0.373861351132E+03   -0.33538E-02   -0.81108E-03 10322   0.146E-01    0.474E-01
RMM:  33    -0.373863875160E+03   -0.25240E-02   -0.30557E-03 10509   0.892E-02    0.370E-01
RMM:  34    -0.373866798051E+03   -0.29229E-02   -0.33522E-03  9878   0.860E-02    0.296E-01
RMM:  35    -0.373870643533E+03   -0.38455E-02   -0.32406E-03  9970   0.768E-02    0.300E-01
RMM:  36    -0.373873402279E+03   -0.27587E-02   -0.31883E-03  9609   0.749E-02    0.252E-01
RMM:  37    -0.373876843419E+03   -0.34411E-02   -0.50800E-03  9377   0.884E-02    0.181E-01
RMM:  38    -0.373880108396E+03   -0.32650E-02   -0.49798E-03  9553   0.798E-02    0.181E-01
RMM:  39    -0.373883312904E+03   -0.32045E-02   -0.60772E-03  9490   0.821E-02    0.155E-01
RMM:  40    -0.373885412554E+03   -0.20997E-02   -0.53261E-03  9476   0.735E-02    0.123E-01
RMM:  41    -0.373885974744E+03   -0.56219E-03   -0.48827E-03  9648   0.686E-02    0.108E-01
RMM:  42    -0.373886961995E+03   -0.98725E-03   -0.22455E-03  9595   0.453E-02    0.823E-02
RMM:  43    -0.373887852373E+03   -0.89038E-03   -0.28510E-03  8964   0.495E-02    0.637E-02
RMM:  44    -0.373888550567E+03   -0.69819E-03   -0.36947E-03  8890   0.570E-02    0.524E-02
RMM:  45    -0.373889198290E+03   -0.64772E-03   -0.23327E-03  9185   0.439E-02    0.419E-02
RMM:  46    -0.373889674091E+03   -0.47580E-03   -0.20588E-03  8781   0.390E-02    0.323E-02
RMM:  47    -0.373889985164E+03   -0.31107E-03   -0.78350E-04  8910   0.250E-02    0.202E-02
RMM:  48    -0.373890162554E+03   -0.17739E-03   -0.42299E-04  8439   0.162E-02    0.149E-02
RMM:  49    -0.373890249584E+03   -0.87030E-04   -0.19381E-04  7411   0.107E-02    0.125E-02
RMM:  50    -0.373890314298E+03   -0.64714E-04   -0.10993E-04  6536   0.792E-03    0.107E-02
RMM:  51    -0.373890367075E+03   -0.52777E-04   -0.69100E-05  6055   0.619E-03    0.931E-03
RMM:  52    -0.373890411961E+03   -0.44886E-04   -0.53067E-05  6117   0.543E-03    0.843E-03
RMM:  53    -0.373890452095E+03   -0.40134E-04   -0.76747E-05  6588   0.649E-03    0.728E-03
RMM:  54    -0.373890447466E+03    0.46296E-05   -0.50770E-05  5939   0.564E-03
   1 F= -.37389045E+03 E0= -.37389872E+03  d E =0.248243E-01  mag=     8.0163
