       N       E                     dE             d eps       ncg     rms          rms(c)
RMM:   1    -0.161157068407E+04   -0.16116E+04   -0.35960E+05  3888   0.165E+03
RMM:   2     0.807970733523E+03    0.24195E+04   -0.68515E+04  3888   0.457E+02
RMM:   3     0.570234664047E+03   -0.23774E+03   -0.16407E+04  3888   0.258E+02
RMM:   4    -0.591526950506E+02   -0.62939E+03   -0.64031E+03  3888   0.164E+02
RMM:   5    -0.336861063320E+03   -0.27771E+03   -0.25105E+03  3888   0.974E+01
RMM:   6    -0.437240172968E+03   -0.10038E+03   -0.91709E+02  3888   0.602E+01
RMM:   7    -0.468040348270E+03   -0.30800E+02   -0.30847E+02  3888   0.338E+01
RMM:   8    -0.479854106357E+03   -0.11814E+02   -0.11458E+02  3888   0.210E+01
RMM:   9    -0.487705989081E+03   -0.78519E+01   -0.79336E+01 12165   0.122E+01
RMM:  10    -0.487318189833E+03    0.38780E+00   -0.78978E+00 13116   0.394E+00
RMM:  11    -0.487484504956E+03   -0.16632E+00   -0.23116E+00 12540   0.111E+00
RMM:  12    -0.487609461800E+03   -0.12496E+00   -0.13490E+00 12563   0.381E-01    0.106E+02
RMM:  13    -0.381758972868E+03    0.10585E+03   -0.11464E+03  9974   0.653E+01    0.122E+02
RMM:  14    -0.375165644251E+03    0.65933E+01   -0.50348E+01 10839   0.146E+01    0.711E+01
RMM:  15    -0.382971065860E+03   -0.78054E+01   -0.46513E+01 10582   0.126E+01    0.862E+01
RMM:  16    -0.389466997728E+03   -0.64959E+01   -0.17071E+02 10390   0.182E+01    0.620E+01
RMM:  17    -0.356072339813E+03    0.33395E+02   -0.30102E+01 10289   0.903E+00    0.340E+01
RMM:  18    -0.355789717954E+03    0.28262E+00   -0.19522E+01  9858   0.729E+00    0.173E+01
RMM:  19    -0.356500719622E+03   -0.71100E+00   -0.49825E+00 10784   0.394E+00    0.103E+01
RMM:  20    -0.358847563458E+03   -0.23468E+01   -0.25985E+00 10363   0.235E+00    0.749E+00
RMM:  21    -0.360614594279E+03   -0.17670E+01   -0.17763E+00 10030   0.198E+00    0.732E+00
RMM:  22    -0.361396748601E+03   -0.78215E+00   -0.62696E-01 10339   0.114E+00    0.647E+00
RMM:  23    -0.363188820537E+03   -0.17921E+01   -0.10210E+00  9734   0.139E+00    0.507E+00
RMM:  24    -0.365564004774E+03   -0.23752E+01   -0.12908E+00  9529   0.145E+00    0.352E+00
RMM:  25    -0.368191141228E+03   -0.26271E+01   -0.17665E+00  9340   0.147E+00    0.269E+00
RMM:  26    -0.369566826605E+03   -0.13757E+01   -0.11538E+00  9999   0.985E-01    0.220E+00
RMM:  27    -0.370636906946E+03   -0.10701E+01   -0.94026E-01  9830   0.796E-01    0.184E+00
RMM:  28    -0.371887413997E+03   -0.12505E+01   -0.10825E+00  9389   0.821E-01    0.130E+00
RMM:  29    -0.372603697820E+03   -0.71628E+00   -0.70998E-01 10055   0.613E-01    0.939E-01
RMM:  30    -0.372910772778E+03   -0.30707E+00   -0.27253E-01 10526   0.403E-01    0.756E-01
RMM:  31    -0.373073779444E+03   -0.16301E+00   -0.10570E-01 10345   0.265E-01    0.586E-01
RMM:  32    -0.373222785465E+03   -0.14901E+00   -0.76605E-02  9691   0.237E-01    0.431E-01
RMM:  33    -0.373358925507E+03   -0.13614E+00   -0.62842E-02  9933   0.202E-01    0.325E-01
RMM:  34    -0.373444858502E+03   -0.85933E-01   -0.32173E-02 10244   0.137E-01    0.271E-01
RMM:  35    -0.373525061010E+03   -0.80203E-01   -0.29357E-02  9464   0.137E-01    0.454E-01
RMM:  36    -0.373533038465E+03   -0.79775E-02   -0.41691E-03 10971   0.726E-02    0.268E-01
RMM:  37    -0.373562060475E+03   -0.29022E-01   -0.92733E-03  9215   0.908E-02    0.434E-01
RMM:  38    -0.373572289192E+03   -0.10229E-01   -0.47102E-03  9819   0.759E-02    0.405E-01
RMM:  39    -0.373581568802E+03   -0.92796E-02   -0.64919E-03  9666   0.898E-02    0.365E-01
RMM:  40    -0.373586671363E+03   -0.51026E-02   -0.67917E-03  9636   0.936E-02    0.317E-01
RMM:  41    -0.373587446879E+03   -0.77552E-03   -0.69868E-03  9691   0.986E-02    0.445E-01
RMM:  42    -0.373587713152E+03   -0.26627E-03   -0.11082E-03  9613   0.666E-02    0.437E-01
RMM:  43    -0.373587687987E+03    0.25165E-04   -0.17394E-04  8459   0.195E-02    0.275E-01
RMM:  44    -0.373588961245E+03   -0.12733E-02   -0.32613E-03  8710   0.845E-02    0.500E-01
RMM:  45    -0.373590311400E+03   -0.13502E-02   -0.35253E-03  8768   0.877E-02    0.197E-01
RMM:  46    -0.373593416785E+03   -0.31054E-02   -0.89809E-03  9486   0.126E-01    0.142E-01
RMM:  47    -0.373595769596E+03   -0.23528E-02   -0.35510E-03  9742   0.744E-02    0.124E-01
RMM:  48    -0.373598448817E+03   -0.26792E-02   -0.60201E-03  9365   0.944E-02    0.156E-01
RMM:  49    -0.373601219543E+03   -0.27707E-02   -0.76184E-03  9198   0.111E-01    0.262E-01
RMM:  50    -0.373602785618E+03   -0.15661E-02   -0.80346E-03  9476   0.111E-01    0.417E-01
RMM:  51    -0.373602868865E+03   -0.83247E-04   -0.10119E-03  9660   0.617E-02    0.428E-01
RMM:  52    -0.373602546541E+03    0.32232E-03   -0.12246E-04  8763   0.205E-02    0.408E-01
RMM:  53    -0.373602547876E+03   -0.13354E-05   -0.14101E-05  5907   0.596E-03
   1 F= -.37360255E+03 E0= -.37360954E+03  d E =0.209652E-01  mag=    -9.8716
